$ Database file written  2009-09-28
$
 ELEMENT /-   ELECTRON_GAS              0.0000E+00  0.0000E+00  0.0000E+00!
 ELEMENT VA   VACUUM                    0.0000E+00  0.0000E+00  0.0000E+00!
 ELEMENT AL   FCC_A1                    2.6982E+01  4.5773E+03  2.8322E+01!
 ELEMENT B    BETA_RHOMBO_B             1.0811E+01  1.2220E+03  5.9000E+00!
 ELEMENT C    GRAPHITE                  1.2011E+01  1.0540E+03  5.7400E+00!
 ELEMENT CO   HCP_A3                    5.8933E+01  0.0000E+00  0.0000E+00!
 ELEMENT CR   BCC_A2                    5.1996E+01  4.0500E+03  2.3560E+01!
 ELEMENT CU   FCC_A1                    6.3546E+01  5.0041E+03  3.3150E+01!
 ELEMENT FE   BCC_A2                    5.5847E+01  4.4890E+03  2.7280E+01!
 ELEMENT MN   CBCC_A12                  5.4938E+01  4.9960E+03  3.2008E+01!
 ELEMENT MO   BCC_A2                    9.5940E+01  4.5890E+03  2.8560E+01!
 ELEMENT N    1/2_MOLE_N2(G)            1.4007E+01  4.3350E+03  9.5751E+01!
 ELEMENT NB   BCC_A2                    9.2906E+01  5.2200E+03  3.6270E+01!
 ELEMENT NI   FCC_A1                    5.8690E+01  4.7870E+03  2.9796E+01!
 ELEMENT P    WHITE                     3.0974E+01  0.0000E+00  0.0000E+00!
 ELEMENT S    FC_ORTHORHOMBIC           3.2066E+01  0.0000E+00  0.0000E+00!
 ELEMENT SI   DIAMOND_FCC_A4            2.8086E+01  3.2175E+03  1.8820E+01!
 ELEMENT TI   HCP_A3                    4.7880E+01  4.8100E+03  3.0648E+01!
 ELEMENT V    BCC_A2                    5.0941E+01  4.5070E+03  3.0890E+01!
 ELEMENT W    BCC_A2                    1.8385E+02  4.9700E+03  3.2620E+01!

 SPECIES AL+3                        AL1/+3!
 SPECIES ALN                         AL1N1!
 SPECIES B11C                        B11C1!
 SPECIES B12                         B12!
 SPECIES B2                          B2!
 SPECIES C2B                         B1C2!
 SPECIES CB2                         B2C1!
 SPECIES CO+2                        CO1/+2!
 SPECIES CR+2                        CR1/+2!
 SPECIES CR+3                        CR1/+3!
 SPECIES CU+1                        CU1/+1!
 SPECIES CU+2                        CU1/+2!
 SPECIES CU+3                        CU1/+3!
 SPECIES CU2S                        CU2S1!
 SPECIES FE+2                        FE1/+2!
 SPECIES FE+3                        FE1/+3!
 SPECIES FE+4                        FE1/+4!
 SPECIES FES                         FE1S1!
 SPECIES MN+2                        MN1/+2!
 SPECIES MN+3                        MN1/+3!
 SPECIES MN+4                        MN1/+4!
 SPECIES MNS                         MN1S1!
 SPECIES MO+2                        MO1/+2!
 SPECIES N-3                         N1/-3!
 SPECIES N2                          N2!
 SPECIES N3                          N3!
 SPECIES NB+2                        NB1/+2!
 SPECIES NB+4                        NB1/+4!
 SPECIES NI+2                        NI1/+2!
 SPECIES NI+3                        NI1/+3!
 SPECIES NIS                         NI1S1!
 SPECIES S-2                         S1/-2!
 SPECIES S2                          S2!
 SPECIES S3                          S3!
 SPECIES S4                          S4!
 SPECIES S5                          S5!
 SPECIES S6                          S6!
 SPECIES S7                          S7!
 SPECIES S8                          S8!
 SPECIES SI+4                        SI1/+4!
 SPECIES SI3N4                       N4SI3!
 SPECIES SIN4/3                      N1.33333SI1!
 SPECIES TI+2                        TI1/+2!
 SPECIES TI+3                        TI1/+3!
 SPECIES TI+4                        TI1/+4!
 SPECIES V+2                         V1/+2!
 SPECIES W+2                         W1/+2!

 FUNCTION GHSERCO    2.98150E+02  +310.241+133.36601*T-25.0861*T*LN(T)
     -.002654739*T**2-1.7348E-07*T**3+72527*T**(-1); 1768 Y -17197.666
     +253.28374*T-40.5*T*LN(T)+9.3488E+30*T**(-9); 6.00000E+03   N !
 FUNCTION GHSERCR    2.98140E+02  -8856.94+157.48*T-26.908*T*LN(T)
     +.00189435*T**2-1.47721E-06*T**3+139250*T**(-1);  2.18000E+03  Y
      -34869.344+344.18*T-50*T*LN(T)-2.88526E+32*T**(-9);  6.00000E+03  N !
 FUNCTION GHSERBB    2.98140E+02  -7735.284+107.111864*T-15.6641*T*LN(T)
     -.006864515*T**2+6.18878E-07*T**3+370843*T**(-1);  1.10000E+03  Y
      -16649.474+184.801744*T-26.6047*T*LN(T)-7.9809E-04*T**2-2.556E-08*T**3
     +1748270*T**(-1);  2.34800E+03  Y
      -36667.582+231.336244*T-31.5957527*T*LN(T)-.00159488*T**2
     +1.34719E-07*T**3+11205883*T**(-1);  3.00000E+03  Y
      -21530.653+222.396264*T-31.4*T*LN(T);  6.00000E+03  N !
 FUNCTION GCOM23C6   2.98150E+02  +23*GHSERCO#+6*GHSERCC#+145000+116*T;
     6.00000E+03   N !
 FUNCTION GCRM23B6   2.98150E+02  -460000+23*GHSERCR#+6*GHSERBB#;   
     6.00000E+03   N !
 FUNCTION GHSERFE    2.98140E+02  +1225.7+124.134*T-23.5143*T*LN(T)
     -.00439752*T**2-5.8927E-08*T**3+77359*T**(-1);  1.81100E+03  Y
      -25383.581+299.31255*T-46*T*LN(T)+2.29603E+31*T**(-9);  6.00000E+03  N 
     !
 FUNCTION GFEM23B6   2.98150E+02  -550030.17+154.66427*T+23*GHSERFE#
     +6*GHSERBB#;   6.00000E+03   N !
 FUNCTION GHSERMN    2.98140E+02  -8115.28+130.059*T-23.4582*T*LN(T)
     -.00734768*T**2+69827*T**(-1);  1.51900E+03  Y
      -28733.41+312.2648*T-48*T*LN(T)+1.656847E+30*T**(-9);  2.00000E+03  N !
 FUNCTION GMNM23B6   2.98150E+02  +23*GHSERMN#+6*GHSERBB#;   6.00000E+03   N 
     !
 FUNCTION GHSERNI    2.98140E+02  -5179.159+117.854*T-22.096*T*LN(T)
     -.0048407*T**2;  1.72800E+03  Y
      -27840.655+279.135*T-43.1*T*LN(T)+1.12754E+31*T**(-9);  3.00000E+03  N 
     !
 FUNCTION GNIM23B6   2.98150E+02  +23*GHSERNI#+6*GHSERBB#;   6.00000E+03   N 
     !
 FUNCTION GBHCP      2.98150E+02  +50208-9.706*T+GHSERBB#;   6.00000E+03   N 
     !
 FUNCTION GCOCRM23   298.15  -76966;  6.00000E+03  N !
 FUNCTION GCRM23C6   298.15  -521983+3622.24*T-620.965*T*LN(T)-.126431*T**2; 
     6000.   N !
 FUNCTION GFEM23C6   298.15  +7.666667*GFECEM#-1.666667*GHSERCC#+66920
     -40*T;   6000.   N !
 FUNCTION GMNM23C6   298.15  -308065+50.966*T+23*GHSERMN#+6*GHSERCC#;   
     6000.   N !
 FUNCTION GNIM23C6   298.15  +23*GHSERNI#+6*GHSERCC#+210000-84.71*T;   
     6000.   N !
 FUNCTION GVM23C6  298.15 -990367+4330.63*T-728.829*T*LN(T)+5003425*T**(-1); 
     6000.   N !
 FUNCTION UALFE      2.98150E+02  -4000+T;   6.00000E+03   N !
 FUNCTION GALFE3     2.98150E+02  +3*UALFE#-4000;   6.00000E+03   N !
 FUNCTION GAL2FE2    2.98150E+02  +4*UALFE#;   6.00000E+03   N !
 FUNCTION GAL3FE     2.98150E+02  +3*UALFE#+9000;   6.00000E+03   N !
 FUNCTION SROALFE    2.98150E+02  +UALFE#;   6.00000E+03   N !
 FUNCTION LFALFE0    2.98150E+02  -104700+30.65*T;   6.00000E+03   N !
 FUNCTION LFALFE1    2.98150E+02  22600;   6.00000E+03   N !
 FUNCTION LFALFE2    2.98150E+02  +29100-13*T;   6.00000E+03   N !
 FUNCTION UKALFEC    2.98150E+02  -1600-16.8*T;   6.00000E+03   N !
 FUNCTION GKALFE3C   2.98150E+02  +3*UKALFEC#;   6.00000E+03   N !
 FUNCTION GKAL2FE2   2.98150E+02  +4*UKALFEC#-5200;   6.00000E+03   N !
 FUNCTION GKAL3FEC   2.98150E+02  +3*UKALFEC#;   6.00000E+03   N !
 FUNCTION SROKALFE   2.98150E+02  +UKALFEC#;   6.00000E+03   N !
 FUNCTION B2ALVA     2.98150E+02  +10000-T;   6.00000E+03   N !
 FUNCTION LB2ALVA    2.98150E+02  100000;   6.00000E+03   N !
 FUNCTION GB2ALFE    2.98150E+02  -10876+2.6*T;   6.00000E+03   N !
 FUNCTION DGBALFE    2.98150E+02  -4530+2.5*T;   6.00000E+03   N !
 FUNCTION DT0ALFE    2.98150E+02  -250;   6.00000E+03   N !
 FUNCTION DB0ALFE    2.98150E+02  -1.2;   6.00000E+03   N !
 FUNCTION ZERO       298.15 0.0; 6000.00  N !
 FUNCTION RTLN25     2.98150E+02  -.562335*R#*T;   6.00000E+03   N !
 FUNCTION GHSERCU    2.98140E+02  -7770.458+130.485235*T-24.112392*T*LN(T)
     -.00265684*T**2+1.29223E-07*T**3+52478*T**(-1);  1.35777E+03  Y
      -13542.026+183.803828*T-31.38*T*LN(T)+3.64167E+29*T**(-9);  
     3.20000E+03  N !
 FUNCTION GHSERSS    2.98140E+02  -5228.956+55.417762*T-11.007*T*LN(T)
     -.026529*T**2+7.754333E-06*T**3;  3.68300E+02  Y
      -6513.769+94.692922*T-17.941839*T*LN(T)-.010895125*T**2
     +1.402558E-06*T**3+39910*T**(-1);  1.30000E+03  N !
 FUNCTION GDIGENIT   2.98150E+02  -62053-105.461*T+8.1715*T*LN(T)+2*GHSERCU#
     +GHSERSS#;   6.00000E+03   N !
 FUNCTION F10383T    2.98150E+02  +211801.621+24.4989821*T-20.78611*T*LN(T); 
       6.00000E+03   N !
 FUNCTION F10711T    2.98140E+02  +130854.682+30.5267876*T-34.25937*T*LN(T)
     +.00583824*T**2-1.79746E-06*T**3-33304.895*T**(-1);  7.00000E+02  Y
      +133769.365-23.7043906*T-25.65337*T*LN(T)-.0042003385*T**2
     +2.51694667E-07*T**3-174588.25*T**(-1);  2.20000E+03  Y
      +140179.423-26.622816*T-25.86682*T*LN(T)-.00276017*T**2
     +9.24508333E-08*T**3-3805126*T**(-1);  6.00000E+03  N !
 FUNCTION F10784T    2.98140E+02  -9522.9741+78.5273879*T-31.35707*T*LN(T)
     +.0027589925*T**2-7.46390667E-07*T**3+56582.3*T**(-1);  1.00000E+03  Y
      +180.108664-15.6128256*T-17.84857*T*LN(T)-.00584168*T**2
     +3.14618667E-07*T**3-1280036*T**(-1);  2.10000E+03  Y
      -18840.1663+92.3120255*T-32.05082*T*LN(T)-.0010728235*T**2
     +1.14281783E-08*T**3+3561002.5*T**(-1);  6.00000E+03  N !
 FUNCTION F11002T    2.98140E+02  -28637.4628-29.7124458*T-25.37431*T*LN(T)
     -.012230205*T**2+6.62201E-07*T**3-86459.2*T**(-1);  9.00000E+02  Y
      -38442.2654+51.1969052*T-36.54058*T*LN(T)-.007461545*T**2
     +4.40338167E-07*T**3+1395975*T**(-1);  2.20000E+03  Y
      -65256.7666+203.938596*T-56.66161*T*LN(T)-6.40182E-04*T**2
     +2.14147833E-09*T**3+8250950*T**(-1);  6.00000E+03  N !
 FUNCTION F11007T    2.98140E+02  -1716.28163+84.8441289*T-51.37952*T*LN(T)
     -.00808767*T**2+210246*T**(-1);  1.00000E+03  N !
 FUNCTION F14852T    2.98140E+02  +269797.373+2.2810296*T-25.70471*T*LN(T)
     +.003751372*T**2-5.48887167E-07*T**3+3450.3165*T**(-1);  1.00000E+03  Y
      +273925.002-38.4958652*T-19.81748*T*LN(T)-2.300353E-04*T**2
     -1.18709967E-08*T**3-570436.5*T**(-1);  3.40000E+03  Y
      +257401.532-.943966729*T-24.05931*T*LN(T)-5.98546E-07*T**2
     +2.02961167E-09*T**3+9368165*T**(-1);  1.00000E+04  N !
 FUNCTION F14964T    2.98140E+02  +117374.548+2.98629624*T-34.09678*T*LN(T)
     -.002325464*T**2+1.85480167E-07*T**3+128593.6*T**(-1);  1.00000E+03  Y
      +117352.438+2.50383325*T-34.04744*T*LN(T)-.0021150245*T**2
     +9.16602333E-08*T**3+175718.45*T**(-1);  3.40000E+03  Y
      +124361.091+14.5182901*T-36.1923*T*LN(T)-5.930925E-04*T**2
     -7.54259333E-09*T**3-7484105*T**(-1);  6.00000E+03  N !
 FUNCTION F15022T    2.98140E+02  +126744.315+83.8435689*T-52.94561*T*LN(T)
     -.0043385055*T**2+6.68300333E-07*T**3+276938.3*T**(-1);  1.00000E+03  Y
      +123958.871+118.720436*T-58.16242*T*LN(T)-7.29079E-06*T**2
     +2.42566833E-10*T**3+558805*T**(-1);  6.00000E+03  N !
 FUNCTION F15041T    2.98140E+02  +109847.438+203.904963*T-72.67966*T*LN(T)
     -.009041155*T**2+1.47148883E-06*T**3+505278*T**(-1);  9.00000E+02  Y
      +104526.08+272.793563*T-83.05028*T*LN(T)-1.828101E-05*T**2
     +6.19803333E-10*T**3+1023588.5*T**(-1);  6.00000E+03  N !
 FUNCTION F15047T    2.98140E+02  +106276.072+170.263399*T-74.99022*T*LN(T)
     -.035336475*T**2+5.76872833E-06*T**3+227070.6*T**(-1);  9.00000E+02  Y
      +75139.8847+544.891054*T-130.537*T*LN(T)+.007879015*T**2
     -4.32610333E-07*T**3+3425257*T**(-1);  2.80000E+03  Y
      +114904.753+339.945759*T-103.9801*T*LN(T)+2.25877E-05*T**2
     -7.925025E-10*T**3-7832715*T**(-1);  6.00000E+03  N !
 FUNCTION F15052T    2.98140E+02  +57214.7948+523.24074*T-130.1838*T*LN(T)
     -4.152356E-04*T**2-4.27131667E-07*T**3+779118.5*T**(-1);  1.60000E+03  Y
      +8925.72335+728.509037*T-155.3363*T*LN(T)+.002031178*T**2
     -1.776135E-08*T**3+14908280*T**(-1);  4.20000E+03  Y
      +43158.7838+657.511854*T-147.3935*T*LN(T)+.0015928905*T**2
     -3.34608333E-08*T**3-8046775*T**(-1);  6.00000E+03  N !
 FUNCTION F15057T    2.98140E+02  +59623.0027+634.182529*T-153.2939*T*LN(T)
     -.003102847*T**2+3.66153167E-07*T**3+940068*T**(-1);  1.50000E+03  Y
      +56671.3245+666.288106*T-157.9591*T*LN(T)-2.441417E-06*T**2
     +7.28532E-11*T**3+1284129.5*T**(-1);  6.00000E+03  N !
 FUNCTION F15061T    2.98140E+02  +45619.0277+695.996674*T-166.1987*T*LN(T)
     -.0109886*T**2-1.38875683E-06*T**3+753634*T**(-1);  8.00000E+02  Y
      +22301.584+822.41812*T-181.0091*T*LN(T)-.020252625*T**2
     +3.04543E-06*T**3+4785936*T**(-1);  1.50000E+03  Y
      +28125.3352+992.470207*T-208.7199*T*LN(T)+.006139635*T**2
     -2.57977667E-07*T**3-2943090*T**(-1);  3.90000E+03  Y
      +82396.4096+766.112131*T-180.3439*T*LN(T)-2.580219E-04*T**2
     +5.17172833E-09*T**3-21845450*T**(-1);  6.00000E+03  N !
 FUNCTION F1824T     2.98140E+02  -261040.37+126.459603*T-18.7341*T*LN(T)
     -.019441475*T**2+2.07715E-06*T**3+422878.4*T**(-1);  1.20000E+03  Y
      -284729.182+357.047505*T-51.63636*T*LN(T)+3.9540955E-07*T**2
     -1.98643167E-11*T**3+3437095*T**(-1);  3.24000E+03  Y
      -332388.511+496.275015*T-67*T*LN(T)-2.701375E-14*T**2+9.95781E-19*T**3
     -1.313297E-04*T**(-1);  3.50000E+03  N !
 FUNCTION GHSERNN    2.98140E+02  -3750.675-9.45425*T-12.7819*T*LN(T)
     -.00176686*T**2+2.681E-09*T**3-32374*T**(-1);  9.50000E+02  Y
      -7358.85+17.2003*T-16.3699*T*LN(T)-6.5107E-04*T**2+3.0097E-08*T**3
     +563070*T**(-1);  3.35000E+03  Y
      -16392.8+50.26*T-20.4695*T*LN(T)+2.39754E-04*T**2-8.333E-09*T**3
     +4596375*T**(-1);  6.00000E+03  N !
 FUNCTION GALLIQ     2.98140E+02  +11005.029-11.841867*T+7.9337E-20*T**7
     +GHSERAL#;  7.00000E+02  Y
      +11005.03-11.841867*T+7.9337E-20*T**7+GHSERAL#;  9.33470E+02  Y
      -795.996+177.430178*T-31.748192*T*LN(T);  2.90000E+03  N !
 FUNCTION GALNLIQ    2.98150E+02  +GALN#+70679-23*T;   6.00000E+03   N !
 FUNCTION GBLIQ      2.98140E+02  +40723.275+86.843839*T-15.6641*T*LN(T)
     -.006864515*T**2+6.18878E-07*T**3+370843*T**(-1);  5.00000E+02  Y
      +41119.703+82.101722*T-14.9827763*T*LN(T)-.007095669*T**2
     +5.07347E-07*T**3+335484*T**(-1);  2.34800E+03  Y
      +28842.012+200.94731*T-31.4*T*LN(T);  6.00000E+03  N !
 FUNCTION GCLIQ      2.98150E+02  +117369-24.63*T+GHSERCC#;   6.00000E+03   
     N !
 FUNCTION GPCLIQ     2.98150E+02  +YCLIQ#*EXP(ZCLIQ#);   6.00000E+03   N !
 FUNCTION GCOLIQ     2.98150E+02  +15085.037-8.931932*T-2.19801E-21*T**7
     +GHSERCO#;  1.76800E+03  Y
     +16351.056-9.683796*T-9.3488E+30*T**(-9)+GHSERCO#; 6.00000E+03   N !
 FUNCTION GCRLIQ     2.98140E+02  +24339.955-11.420225*T+2.37615E-21*T**7
     +GHSERCR#;  2.18000E+03  Y
      -16459.984+335.616316*T-50*T*LN(T);  6.00000E+03  N !
 FUNCTION GPCRLIQ    2.98150E+02  +YCRLIQ#*EXP(ZCRLIQ#);   6.00000E+03   N !
 FUNCTION GCULIQ     2.98140E+02  +12964.735-9.511904*T-5.8489E-21*T**7
     +GHSERCU#;  1.35777E+03  Y
      -46.545+173.881484*T-31.38*T*LN(T);  3.20000E+03  N !
 FUNCTION GFELIQ     2.98140E+02  +12040.17-6.55843*T-3.6751551E-21*T**7
     +GHSERFE#;  1.81100E+03  Y
      -10838.83+291.302*T-46*T*LN(T);  6.00000E+03  N !
 FUNCTION GPFELIQ    2.98150E+02  +YFELIQ#*EXP(ZFELIQ#);   6.00000E+03   N !
 FUNCTION GSSLIQ     2.98140E+02  -4001.549+77.905686*T-15.504*T*LN(T)
     -.018629*T**2-2.4942E-07*T**3-113945*T**(-1);  3.88360E+02  Y
      -5285183.35+118449.601*T-19762.4*T*LN(T)+32.79275*T**2
     -.0102214167*T**3+2.646735E+08*T**(-1);  4.28150E+02  Y
      -8174995.23+319914.094*T-57607.3*T*LN(T)+135.3045*T**2
     -.0529973333*T**3;  4.32250E+02  Y
      -219408.801+7758.85593*T-1371.85*T*LN(T)+2.845035*T**2
     -.00101380333*T**3;  4.53150E+02  Y
      +92539.872-1336.35027*T+202.958*T*LN(T)-.2531915*T**2+5.18835E-05*T**3
     -8202200*T**(-1);  7.17000E+02  Y
      -6889.972+176.37082*T-32*T*LN(T);  1.30000E+03  N !
 FUNCTION GMNLIQ     2.98140E+02  +17859.91-12.6208*T-4.41929E-21*T**7
     +GHSERMN#;  1.51900E+03  Y
      +18739.51-13.2288*T-1.656847E+30*T**(-9)+GHSERMN#;  2.00000E+03  N !
 FUNCTION GMOLIQ     2.98140E+02  +41831.347-14.694912*T+4.24519E-22*T**7
     +GHSERMO#;  2.89600E+03  Y
      +34095.373-11.890046*T+4.849315E+33*T**(-9)+GHSERMO#;  5.00000E+03  N !
 FUNCTION GPMOLIQ    2.98150E+02  +YMOLIQ#*EXP(ZMOLIQ#);   6.00000E+03   N !
 FUNCTION GNLIQ      2.98150E+02  +29950+59.02*T+GHSERNN#;   6.00000E+03   N 
     !
 FUNCTION GNBLIQ     2.98140E+02  +29781.555-10.816418*T-3.06098E-23*T**7
     +GHSERNB#;  2.75000E+03  Y
      -7499.398+260.756148*T-41.77*T*LN(T);  6.00000E+03  N !
 FUNCTION GNILIQ     2.98140E+02  +16414.686-9.397*T-3.82318E-21*T**7
     +GHSERNI#;  1.72800E+03  Y
      +18290.88-10.537*T-1.12754E+31*T**(-9)+GHSERNI#;  3.00000E+03  N !
 FUNCTION GPPLIQ     2.50000E+02  -26316.111+434.930931*T-70.7440584*T*LN(T)
     -.002898936*T**2+3.9049371E-05*T**3+1141147*T**(-1);  3.17300E+02  Y
      -7232.449+133.291873*T-26.326*T*LN(T);  3.00000E+03  N !
 FUNCTION GSILIQ     2.98140E+02  +50696.36-30.099439*T+2.09307E-21*T**7
     +GHSERSI#;  1.68700E+03  Y
      +49828.165-29.559069*T+4.20369E+30*T**(-9)+GHSERSI#;  3.60000E+03  N !
 FUNCTION GSI3N4LI   2.98150E+02  +GSI3N4#+209300-80.5*T;   6.00000E+03   N !
 FUNCTION GTILIQ     2.98140E+02  +12194.415-6.980938*T+GHSERTI#;  
     9.00000E+02  Y
      +12194.416-6.980938*T+GHSERTI#;  1.30000E+03  Y
      +369519.198-2554.0225*T+342.059267*T*LN(T)-.163409355*T**2
     +1.2457117E-05*T**3-67034516*T**(-1);  1.94100E+03  Y
      -19887.066+298.7367*T-46.29*T*LN(T);  4.00000E+03  N !
 FUNCTION GVLIQ      2.98140E+02  +20764.117-9.455552*T-5.19136E-22*T**7
     +GHSERVV#;  7.90000E+02  Y
      +20764.117-9.455552*T-5.19136E-22*T**7+GHSERVV#;  2.18300E+03  Y
      +22072.354-10.0848*T-6.44389E+31*T**(-9)+GHSERVV#;  4.00000E+03  N !
 FUNCTION GWLIQ      2.98140E+02  +52160.584-14.10999*T-2.713468E-24*T**7
     +GHSERWW#;  3.69500E+03  Y
      +52432.75-14.187335*T-1.528621E+33*T**(-9)+GHSERWW#;  6.00000E+03  N !
 FUNCTION GALBCC     2.98150E+02  +10083-4.813*T+GHSERAL#;   6.00000E+03   N 
     !
 FUNCTION GBBCC      2.98150E+02  +43514-12.217*T+GHSERBB#;   6.00000E+03   
     N !
 FUNCTION GCOBCC     2.98150E+02  +2938-0.7138*T+GHSERCO#;   6.00000E+03   N !
 FUNCTION UN_ASS     2.98140E+02  0.0 ;  3.00000E+02  N !
 FUNCTION GPCRBCC    2.98150E+02  +YCRBCC#*EXP(ZCRBCC#);   6.00000E+03   N !
 FUNCTION GPFEBCC    2.98150E+02  +YFEBCC#*EXP(ZFEBCC#);   6.00000E+03   N !
 FUNCTION GHSERMO    2.98140E+02  -7746.302+131.9197*T-23.56414*T*LN(T)
     -.003443396*T**2+5.66283E-07*T**3+65812*T**(-1)-1.30927E-10*T**4;  
     2.89600E+03  Y
      -30556.41+283.559746*T-42.63829*T*LN(T)-4.849315E+33*T**(-9);  
     5.00000E+03  N !
 FUNCTION GHSERNB    2.98140E+02  -8519.353+142.045475*T-26.4711*T*LN(T)
     +2.03475E-04*T**2-3.5012E-07*T**3+93399*T**(-1);  2.75000E+03  Y
      -37669.3+271.720843*T-41.77*T*LN(T)+1.528238E+32*T**(-9);  6.00000E+03 
      N !
 FUNCTION GPPRED     2.50000E+02  -25976.559+148.685002*T-25.55*T*LN(T)
     +.0034121*T**2-2.418867E-06*T**3+160095*T**(-1);  5.00000E+02  Y
      -21723.721+77.684737*T-14.368*T*LN(T)-.00957685*T**2+3.93917E-07*T**3
     -141375*T**(-1);  8.52350E+02  Y
      -119408.413+1026.04262*T-149.449556*T*LN(T)+.067272364*T**2
     -6.651929E-06*T**3+12495943*T**(-1);  1.50000E+03  Y
      -24524.119+153.852181*T-26.326*T*LN(T);  3.00000E+03  N !
 FUNCTION GSIBCC     2.98150E+02  +47000-22.5*T+GHSERSI#;   6.00000E+03   N !
 FUNCTION GTIBCC     2.98140E+02  -1272.064+134.71418*T-25.5768*T*LN(T)
     -6.63845E-04*T**2-2.78803E-07*T**3+7208*T**(-1);  1.15500E+03  Y
      +6667.385+105.366379*T-22.3771*T*LN(T)+.00121707*T**2-8.4534E-07*T**3
     -2002750*T**(-1);  1.94100E+03  Y
      +26483.26-182.426471*T+19.0900905*T*LN(T)-.02200832*T**2
     +1.228863E-06*T**3+1400501*T**(-1);  4.00000E+03  N !
 FUNCTION GHSERVV    2.98140E+02  -7930.43+133.346053*T-24.134*T*LN(T)
     -.003098*T**2+1.2175E-07*T**3+69460*T**(-1);  7.90000E+02  Y
      -7967.842+143.291093*T-25.9*T*LN(T)+6.25E-05*T**2-6.8E-07*T**3;  
     2.18300E+03  Y
      -41689.864+321.140783*T-47.43*T*LN(T)+6.44389E+31*T**(-9);  
     4.00000E+03  N !
 FUNCTION GHSERWW    2.98140E+02  -7646.311+130.4*T-24.1*T*LN(T)
     -.001936*T**2+2.07E-07*T**3+44500*T**(-1)-5.33E-11*T**4;  3.69500E+03  Y
      -82868.801+389.362335*T-54*T*LN(T)+1.528621E+33*T**(-9);  6.00000E+03  
     N !
 FUNCTION GHSERAL    2.98140E+02  -7976.15+137.093038*T-24.3671976*T*LN(T)
     -.001884662*T**2-8.77664E-07*T**3+74092*T**(-1);  7.00000E+02  Y
      -11276.24+223.048446*T-38.5844296*T*LN(T)+.018531982*T**2
     -5.764227E-06*T**3+74092*T**(-1);  9.33470E+02  Y
      -11278.378+188.684153*T-31.748192*T*LN(T)-1.230524E+28*T**(-9);  
     2.90000E+03  N !
 FUNCTION GHSERCC    2.98150E+02  -17368.441+170.73*T-24.3*T*LN(T)
     -4.723E-04*T**2+2562600*T**(-1)-2.643E+08*T**(-2)+1.2E+10*T**(-3);   
     6.00000E+03   N !
 FUNCTION GPCGRA     2.98150E+02  +YCGRA#*EXP(ZCGRA#);   6.00000E+03   N !
 FUNCTION GMNBCC     2.98140E+02  -3235.3+127.85*T-23.7*T*LN(T)
     -.00744271*T**2+60000*T**(-1);  1.51900E+03  Y
      -23188.83+307.7043*T-48*T*LN(T)+1.265152E+30*T**(-9);  2.00000E+03  N !
 FUNCTION GPMOBCC    2.98150E+02  +YMOBCC#*EXP(ZMOBCC#);   6.00000E+03   N !
 FUNCTION GNIBCC     2.98150E+02  +8715.084-3.556*T+GHSERNI#;   6.00000E+03  
      N !
 FUNCTION GHSERSI    2.98140E+02  -8162.609+137.236859*T-22.8317533*T*LN(T)
     -.001912904*T**2-3.552E-09*T**3+176667*T**(-1);  1.68700E+03  Y
      -9457.642+167.281367*T-27.196*T*LN(T)-4.20369E+30*T**(-9);  
     3.60000E+03  N !
 FUNCTION GHSERTIC   2.98150E+02  -168261.31+293.73187*T-48.0195*T*LN(T)
     -.00272*T**2+819000*T**(-1)-2.03E+09*T**(-3);   6.00000E+03   N !
 FUNCTION GHSERTIN   2.98150E+02  -357904.75+330.49827*T-52.458723*T*LN(T)
     -9.2840476E-04*T**2+871489.25*T**(-1)-2.4139721E+09*T**(-3);   
     6.00000E+03   N !
 FUNCTION GPWBCC     2.98150E+02  +YWBCC#*EXP(ZWBCC#);   6.00000E+03   N !
 FUNCTION L0BCC      2.98150E+02  -27809+11.62*T;   6.00000E+03   N !
 FUNCTION FESIW1     2.98150E+02  +1260*R#;   6.00000E+03   N !
 FUNCTION L1BCC      2.98150E+02  -11544;   6.00000E+03   N !
 FUNCTION L2BCC      2.98150E+02  3890;   6.00000E+03   N !
 FUNCTION ETCFESI    2.98150E+02  63;   6.00000E+03   N !
 FUNCTION GBFCC      2.98150E+02  +50208-13.472*T+GHSERBB#;   6.00000E+03   
     N !
 FUNCTION GHSERTI    2.98140E+02  -8059.921+133.615208*T-23.9933*T*LN(T)
     -.004777975*T**2+1.06716E-07*T**3+72636*T**(-1);  9.00000E+02  Y
      -7811.815+132.988068*T-23.9887*T*LN(T)-.0042033*T**2-9.0876E-08*T**3
     +42680*T**(-1);  1.15500E+03  Y
      +908.837+66.976538*T-14.9466*T*LN(T)-.0081465*T**2+2.02715E-07*T**3
     -1477660*T**(-1);  1.94100E+03  Y
      -124526.786+638.806871*T-87.2182461*T*LN(T)+.008204849*T**2
     -3.04747E-07*T**3+36699805*T**(-1);  4.00000E+03  N !
 FUNCTION GCOFCC     2.98150E+02  +427.591-.615248*T+GHSERCO#;   6.00000E+03
     N !
 FUNCTION GCRFCC     2.98150E+02  +7284+.163*T+GHSERCR#;   6.00000E+03   N !
 FUNCTION GFEFCC     2.98140E+02  -1462.4+8.282*T-1.15*T*LN(T)+6.4E-04*T**2
     +GHSERFE#;  1.81100E+03  Y
      -1713.815+.94001*T+4.9251E+30*T**(-9)+GHSERFE#;  6.00000E+03  N !
 FUNCTION GPFEFCC    2.98150E+02  +YFEFCC#*EXP(ZFEFCC#);   6.00000E+03   N !
 FUNCTION GPCFCC     2.98150E+02  +YCFCC#*EXP(ZFEFCC#);   6.00000E+03   N !
 FUNCTION GMNFCC     2.98140E+02  -3439.3+131.884*T-24.5177*T*LN(T)
     -.006*T**2+69600*T**(-1);  1.51900E+03  Y
      -26070.1+309.6664*T-48*T*LN(T)+3.86196E+30*T**(-9);  2.00000E+03  N !
 FUNCTION GHEXTNB    2.98150E+02  -8519.353+142.045475*T-26.4711*T*LN(T)
     +2.03475E-04*T**2-3.5012E-07*T**3+93399*T**(-1);   6.00000E+03   N !
 FUNCTION GHSERVZ    2.98140E+02  -7930.43+133.346053*T-24.134*T*LN(T)
     -.003098*T**2+1.2175E-07*T**3+69460*T**(-1);  7.90000E+02  Y
      -7967.842+143.291093*T-25.9*T*LN(T)+6.25E-05*T**2-6.8E-07*T**3;  
     4.00000E+03  Y
      -41689.864+321.140783*T-47.43*T*LN(T)+6.44389E+31*T**(-9);  
     6.00000E+03  N !
 FUNCTION GTIFCC     2.98150E+02  +6000-.1*T+GHSERTI#;   6.00000E+03   N !
 FUNCTION GWFCC      2.98150E+02  +19300+.63*T+GHSERWW#;   6.00000E+03   N !
 FUNCTION GALHCP     2.98150E+02  +5481-1.799*T+GHSERAL#;   6.00000E+03   N !
 FUNCTION GCRHCP     2.98150E+02  +4438+GHSERCR#+GPCRBCC#;   6.00000E+03   N !
 FUNCTION GPFEHCP    2.98150E+02  +YFEHCP#*EXP(ZFEHCP#);   6.00000E+03   N !
 FUNCTION GWHCP      2.98150E+02  +14750+GHSERWW#;   6.00000E+03   N !
 FUNCTION GPCDIA     2.98150E+02  +YCDIA#*EXP(ZCDIA#);   6.00000E+03   N !
 FUNCTION GHSERPP    2.50000E+02  -43821.799+1026.69389*T-178.426*T*LN(T)
     +.290708*T**2-1.04022667E-04*T**3+1632695*T**(-1);  3.17300E+02  Y
      -9587.448+152.341487*T-28.7335301*T*LN(T)+.001715669*T**2
     -2.2829E-07*T**3+172966*T**(-1);  1.00000E+03  Y
      -8093.075+135.876831*T-26.326*T*LN(T);  3.00000E+03  N !
 FUNCTION GFECEM     2.98150E+02  -10745+706.04*T-120.6*T*LN(T)+GPCEM1#;   
     6.00000E+03   N !
 FUNCTION GMOFCC     2.98150E+02  +15200+.63*T+GHSERMO#;   6.00000E+03   N !
 FUNCTION GCRM3C2    2.98150E+02  -100823.8+530.66989*T-89.6694*T*LN(T)
     -.0301188*T**2;   6.00000E+03   N !
 FUNCTION GMN3SI     2.98140E+02  -31047.468+195.60933*T-32.920521*T*LN(T)
     -.0019425154*T**2+414300.232*T**(-1);  9.50000E+02  Y
      -29935.151+194.43847*T-32.920521*T*LN(T)-.0019425154*T**2
     +414300.232*T**(-1);  6.00000E+03  N !
 FUNCTION GCRM7C3    2.98150E+02  -201690+1103.128*T-190.177*T*LN(T)
     -.0578207*T**2;   6.00000E+03   N !
 FUNCTION GPMU1      2.98150E+02  +8.72E-05*P;   6.00000E+03   N !
 FUNCTION GPMU2      2.98150E+02  +1.04E-04*P;   6.00000E+03   N !
 FUNCTION GS_NIVNI   2.98140E+02  -161645.05+3532.8443*T-671.032*T*LN(T)
     -.1382502*T**2+4.87E-07*T**3+277840*T**(-1);  7.90000E+02  Y
      -161794.7+3572.6245*T-678.096*T*LN(T)-.1256082*T**2-2.72E-06*T**3;  
     1.72800E+03  N !
 FUNCTION GS_NIVV    2.98140E+02  -663330.65+4012.7719*T-707.716*T*LN(T)
     -.1068816*T**2+2.6785E-06*T**3+1528120*T**(-1);  7.90000E+02  Y
      -664153.72+4231.5628*T-746.568*T*LN(T)-.0373506*T**2-1.496E-05*T**3;  
     1.72800E+03  N !
 FUNCTION GALN       2.98150E+02  -345837.2+359.86191*T-54.308659*T*LN(T)
     +8.5550404E-04*T**2+2326379.8*T**(-1)-1.2556503E+08*T**(-2);   
     6.00000E+03   N !
 FUNCTION GCR5SI3    2.98150E+02  -310844.71+1059.33615*T-182.57818*T*LN(T)
     -.02391968*T**2-2.31728E-06*T**3;   6.00000E+03   N !
 FUNCTION GMN5SI3    2.98150E+02  -261930.32+1170.7779*T-211.15016*T*LN(T)
     -.01529344*T**2-149263.11*T**(-1);   6.00000E+03   N !
 FUNCTION GFES       2.98140E+02  -107518-18.19*T+1.78*T*LN(T)+GHSERFE#
     +GHSERSS#;  2.00000E+03  N !
 FUNCTION GMNS       2.98140E+02  -227939.777+241.371716*T-47.6976*T*LN(T)
     -.0037656*T**2;  1.80300E+03  Y
      -250399.789+391.333612*T-66.944*T*LN(T);  3.00000E+03  N !
 FUNCTION GNIS       2.98150E+02  -106931.56+215.62628*T-38.911202*T*LN(T)
     -.0133888*T**2;   6.00000E+03   N !
 FUNCTION GNIS2      2.98150E+02  -51033.75+115.36531*T-20.222666*T*LN(T)
     -.004218867*T**2;   6.00000E+03   N !
 FUNCTION GPSIG1     2.98150E+02  +1.09E-04*P;   6.00000E+03   N !
 FUNCTION GPSIG2     2.98150E+02  +1.117E-04*P;   6.00000E+03   N !
 FUNCTION YCLIQ      2.98150E+02  +VCLIQ#*EXP(-ECLIQ#);   6.00000E+03   N !
 FUNCTION ZCLIQ      2.98150E+02  +1*LN(XCLIQ#);   6.00000E+03   N !
 FUNCTION YCRLIQ     2.98150E+02  +VCRLIQ#*EXP(-ECRLIQ#);   6.00000E+03   N !
 FUNCTION ZCRLIQ     2.98150E+02  +1*LN(XCRLIQ#);   6.00000E+03   N !
 FUNCTION YFELIQ     2.98150E+02  +VFELIQ#*EXP(-EFELIQ#);   6.00000E+03   N !
 FUNCTION ZFELIQ     2.98150E+02  +1*LN(XFELIQ#);   6.00000E+03   N !
 FUNCTION YMOLIQ     2.98150E+02  +VMOLIQ#*EXP(-EMOLIQ#);   6.00000E+03   N !
 FUNCTION ZMOLIQ     2.98150E+02  +1*LN(XMOLIQ#);   6.00000E+03   N !
 FUNCTION GSI3N4     2.98150E+02  -936805.62+10885820*T**(-1)+1066.0398*T
     -158.45272*T*LN(T)-.0082264274*T**2-7.730173E+08*T**(-2);   6.00000E+03 
       N !
 FUNCTION YCRBCC     2.98150E+02  +VCRBCC#*EXP(-ECRBCC#);   6.00000E+03   N !
 FUNCTION ZCRBCC     2.98150E+02  +1*LN(XCRBCC#);   6.00000E+03   N !
 FUNCTION YFEBCC     2.98150E+02  +VFEBCC#*EXP(-EFEBCC#);   6.00000E+03   N !
 FUNCTION ZFEBCC     2.98150E+02  +1*LN(XFEBCC#);   6.00000E+03   N !
 FUNCTION YCGRA      2.98150E+02  +VCGRA#*EXP(-ECGRA#);   6.00000E+03   N !
 FUNCTION ZCGRA      2.98150E+02  +1*LN(XCGRA#);   6.00000E+03   N !
 FUNCTION YMOBCC     2.98150E+02  +VMOBCC#*EXP(-EMOBCC#);   6.00000E+03   N !
 FUNCTION ZMOBCC     2.98150E+02  +1*LN(XMOBCC#);   6.00000E+03   N !
 FUNCTION YWBCC      2.98150E+02  +VWBCC#*EXP(-EWBCC#);   6.00000E+03   N !
 FUNCTION ZWBCC      2.98150E+02  +1*LN(XWBCC#);   6.00000E+03   N !
 FUNCTION YFEFCC     2.98150E+02  +VFEFCC#*EXP(-EFEFCC#);   6.00000E+03   N !
 FUNCTION ZFEFCC     2.98150E+02  +1*LN(XFEFCC#);   6.00000E+03   N !
 FUNCTION YCFCC      2.98150E+02  +VCFCC#*EXP(-EFEFCC#);   6.00000E+03   N !
 FUNCTION YFEHCP     2.98150E+02  +VFEHCP#*EXP(-EFEHCP#);   6.00000E+03   N !
 FUNCTION ZFEHCP     2.98150E+02  +1*LN(XFEHCP#);   6.00000E+03   N !
 FUNCTION YCDIA      2.98150E+02  +VCDIA#*EXP(-ECDIA#);   6.00000E+03   N !
 FUNCTION ZCDIA      2.98150E+02  +1*LN(XCDIA#);   6.00000E+03   N !
 FUNCTION GPCEM1     2.98150E+02  +VCEM1#*P;   6.00000E+03   N !
 FUNCTION VCLIQ      2.98150E+02  +7.626E-06*EXP(ACLIQ#);   6.00000E+03   N !
 FUNCTION ECLIQ      2.98150E+02  +1*LN(CCLIQ#);   6.00000E+03   N !
 FUNCTION XCLIQ      2.98150E+02  +1*EXP(.5*DCLIQ#)-1;   6.00000E+03   N !
 FUNCTION VCRLIQ     2.98150E+02  +7.653E-06*EXP(ACRLIQ#);   6.00000E+03   N 
     !
 FUNCTION ECRLIQ     2.98150E+02  +1*LN(CCRLIQ#);   6.00000E+03   N !
 FUNCTION XCRLIQ     2.98150E+02  +1*EXP(.8*DCRLIQ#)-1;   6.00000E+03   N !
 FUNCTION VFELIQ     2.98150E+02  +6.46677E-06*EXP(AFELIQ#);   6.00000E+03   
     N !
 FUNCTION EFELIQ     2.98150E+02  +1*LN(CFELIQ#);   6.00000E+03   N !
 FUNCTION XFELIQ     2.98150E+02  +1*EXP(.8484467*DFELIQ#)-1;   6.00000E+03  
      N !
 FUNCTION VMOLIQ     2.98150E+02  +9.75079E-06*EXP(AMOLIQ#);   6.00000E+03   
     N !
 FUNCTION EMOLIQ     2.98150E+02  +1*LN(CMOLIQ#);   6.00000E+03   N !
 FUNCTION XMOLIQ     2.98150E+02  +1*EXP(.6923076*DMOBCC#)-1;   6.00000E+03  
      N !
 FUNCTION VCRBCC     2.98150E+02  +7.188E-06*EXP(ACRBCC#);   6.00000E+03   N 
     !