
$ Database file written  2008-07-01
$
 ELEMENT /-   ELECTRON_GAS              0.0000E+00  0.0000E+00  0.0000E+00!
 ELEMENT VA   VACUUM                    0.0000E+00  0.0000E+00  0.0000E+00!
 ELEMENT AL   FCC_A1                    2.6982E+01  4.5773E+03  2.8322E+01!
 ELEMENT C    GRAPHITE                  1.2011E+01  1.0540E+03  5.7400E+00!
 ELEMENT CU   FCC_A1                    6.3546E+01  5.0041E+03  3.3150E+01!
 ELEMENT FE   BCC_A2                    5.5847E+01  4.4890E+03  2.7280E+01!
 ELEMENT H    1/2_MOLE_H2(G)            1.0079E+00  0.0000E+00  1.5603E+01!
 ELEMENT MN   CBCC_A12                  5.4938E+01  4.9960E+03  3.2008E+01!
 ELEMENT N    1/2_MOLE_N2(G)            1.4007E+01  4.3350E+03  9.5751E+01!
 ELEMENT NB   BCC_A2                    9.2906E+01  5.2200E+03  3.6270E+01!
 ELEMENT NI   FCC_A1                    5.8690E+01  4.7870E+03  2.9796E+01!
 ELEMENT P    WHITE                     3.0974E+01  0.0000E+00  0.0000E+00!
 ELEMENT S    FC_ORTHORHOMBIC           3.2060E+01  0.0000E+00  7.6300E+00!
 ELEMENT SI   DIAMOND_FCC_A4            2.8086E+01  3.2175E+03  1.8820E+01!
 ELEMENT TI   HCP_A3                    4.7880E+01  4.8100E+03  3.0648E+01!

 SPECIES AL+3                        AL1/+3!
 SPECIES ALN                         AL1N1!
 SPECIES CU+1                        CU1/+1!
 SPECIES CU+2                        CU1/+2!
 SPECIES CU+3                        CU1/+3!
 SPECIES CU2S                        CU2S1!
 SPECIES FE+2                        FE1/+2!
 SPECIES FE+3                        FE1/+3!
 SPECIES FE+4                        FE1/+4!
 SPECIES FES                         FE1S1!
 SPECIES H1S1                        H1S1!
 SPECIES H2                          H2!
 SPECIES H2S1                        H2S1!
 SPECIES H2S2                        H2S2!
 SPECIES MN+2                        MN1/+2!
 SPECIES MN+3                        MN1/+3!
 SPECIES MN+4                        MN1/+4!
 SPECIES MNS                         MN1S1!
 SPECIES N2                          N2!
 SPECIES NB+2                        NB1/+2!
 SPECIES NB+4                        NB1/+4!
 SPECIES NI+2                        NI1/+2!
 SPECIES NI+3                        NI1/+3!
 SPECIES NIS                         NI1S1!
 SPECIES S2                          S2!
 SPECIES S3                          S3!
 SPECIES S4                          S4!
 SPECIES S5                          S5!
 SPECIES S6                          S6!
 SPECIES S7                          S7!
 SPECIES S8                          S8!
 SPECIES S-2                         S1/-2!
 SPECIES SI+4                        SI1/+4!
 SPECIES SI3N4                       N4SI3!
 SPECIES SIN4/3                      N1.33333SI1!
 SPECIES TI+2                        TI1/+2!
 SPECIES TI+3                        TI1/+3!
 SPECIES TI+4                        TI1/+4!

 FUNCTION GDIGENIT  298.15  -62053-105.461*T+8.1715*T*LN(T)
     +2*GHSERCU#+GHSERSS#;   6000.   N !
 FUNCTION GALNLIQ    298.15  +GALN#+70679-23*T;   6000.   N !
 FUNCTION GNLIQ      298.15  +29950+59.02*T+GHSERNN#;   6000.   N !
 FUNCTION GNILIQ     298.15  +16414.686-9.397*T-3.82318E-21*T**7
     +GHSERNI#;  1.72800E+03  Y
      +18290.88-10.537*T-1.12754E+31*T**(-9)+GHSERNI#;  3.00000E+03  N !
 FUNCTION GSI3N4LI   298.15  +GSI3N4#+209300-80.5*T;   6000.   N !
 FUNCTION GHSERNN   298.15  -3750.675-9.45425*T-12.7819*T*LN(T)-.00176686*T**2
     +2.681E-09*T**3-32374*T**(-1); 950. Y
     -7358.85+17.2003*T-16.3699*T*LN(T)-6.5107E-04*T**2+3.0097E-08*T**3
     +563070*T**(-1); 3350.  Y
     -16392.8+50.26*T-20.4695*T*LN(T)+2.39754E-04*T**2-8.333E-09*T**3
     +4596375*T**(-1); 6000. N !
 FUNCTION GHSERTIN   298.15  -357904.75+330.49827*T-52.458723*T*LN(T)
     -9.2840476E-04*T**2+871489.25*T**(-1)-2.4139721E+09*T**(-3);   
     6000.   N !
 FUNCTION GALN       298.15  -345837.2+359.86191*T-54.308659*T*LN(T)
     +8.5550404E-04*T**2+2326379.8*T**(-1)-1.2556503E+08*T**(-2);   
     6000.   N !
 FUNCTION GHSERFE    298.14  +1225.7+124.134*T-23.5143*T*LN(T)
     -.00439752*T**2-5.8927E-08*T**3+77359*T**(-1);  1.81100E+03  Y
     -25383.581+299.31255*T-46*T*LN(T)+2.29603E+31*T**(-9);  6000.  N !
 FUNCTION GHSERMN    298.14  -8115.28+130.059*T-23.4582*T*LN(T)
     -.00734768*T**2+69827*T**(-1);  1.51900E+03  Y
      -28733.41+312.2648*T-48*T*LN(T)+1.656847E+30*T**(-9);  2000.  N !
 FUNCTION GHSERNI    298.14  -5179.159+117.854*T-22.096*T*LN(T)
     -.0048407*T**2;  1.72800E+03  Y
     -27840.655+279.135*T-43.1*T*LN(T)+1.12754E+31*T**(-9);  3000.  N !
 FUNCTION GALLIQ     298.14  +11005.029-11.841867*T+7.9337E-20*T**7
     +GHSERAL#;  9.33470E+02  Y
     +10482.382-11.253974*T+1.231E+28*T**(-9)+GHSERAL#; 6000  N !
 FUNCTION GCLIQ      298.15  +117369-24.63*T+GHSERCC#;   6000.      N !
 FUNCTION GPCLIQ     298.15  +YCLIQ#*EXP(ZCLIQ#);   6000.   N !
 FUNCTION GCULIQ     298.14  +12964.735-9.511904*T-5.8489E-21*T**7
     +GHSERCU#;  1.35777E+03  Y
      -46.545+173.881484*T-31.38*T*LN(T);  3.20000E+03  N !
 FUNCTION GFELIQ     298.14  +12040.17-6.55843*T-3.6751551E-21*T**7
     +GHSERFE#;  1.81100E+03  Y
      -10838.83+291.302*T-46*T*LN(T);  6000.  N !
 FUNCTION GPFELIQ    298.15  +YFELIQ#*EXP(ZFELIQ#);   6000.   N !
 FUNCTION GSSLIQ     298.14  -4001.549+77.905686*T-15.504*T*LN(T)
     -.018629*T**2-2.4942E-07*T**3-113945*T**(-1);  3.88360E+02  Y
      -5285183.35+118449.601*T-19762.4*T*LN(T)+32.79275*T**2
     -.0102214167*T**3+2.646735E+08*T**(-1);  4.28150E+02  Y
      -8174995.23+319914.094*T-57607.3*T*LN(T)+135.3045*T**2
     -.0529973333*T**3;  4.32250E+02  Y
      -219408.801+7758.85593*T-1371.85*T*LN(T)+2.845035*T**2
     -.00101380333*T**3;  4.53150E+02  Y
      +92539.872-1336.35027*T+202.958*T*LN(T)-.2531915*T**2+5.18835E-05*T**3
     -8202200*T**(-1);  7.17000E+02  Y
      -6889.972+176.37082*T-32*T*LN(T);  1.30000E+03  N !
 FUNCTION GMNLIQ     298.14  +17859.91-12.6208*T-4.41929E-21*T**7
     +GHSERMN#;  1.51900E+03  Y
      +18739.51-13.2288*T-1.656847E+30*T**(-9)+GHSERMN#;  2000.  N !
 FUNCTION GNBLIQ     298.14  +29781.555-10.816418*T-3.06098E-23*T**7
     +GHSERNB#;  2.75000E+03  Y
      -7499.398+260.756148*T-41.77*T*LN(T);  6000.  N !
 FUNCTION GNILIQ     298.14  +16414.686-9.397*T-3.82318E-21*T**7
     +GHSERNI#;  1.72800E+03  Y
      +18290.88-10.537*T-1.12754E+31*T**(-9)+GHSERNI#;  3000.  N !
 FUNCTION GPPLIQ     2.50000E+02  -26316.111+434.930931*T-70.7440584*T*LN(T)
     -.002898936*T**2+3.9049371E-05*T**3+1141147*T**(-1);  3.17300E+02  Y
      -7232.449+133.291873*T-26.326*T*LN(T);  3000.  N !
 FUNCTION GSILIQ     298.14  +50696.36-30.099439*T+2.09307E-21*T**7
     +GHSERSI#;  1.68700E+03  Y
      +49828.165-29.559069*T+4.20369E+30*T**(-9)+GHSERSI#;  3.60000E+03  N !
 FUNCTION GTILIQ     298.14  +12194.415-6.980938*T+GHSERTI#;  
     9.00000E+02  Y
      +12194.416-6.980938*T+GHSERTI#;  1.30000E+03  Y
      +369519.198-2554.0225*T+342.059267*T*LN(T)-.163409355*T**2
     +1.2457117E-05*T**3-67034516*T**(-1);  1.94100E+03  Y
      -19887.066+298.7367*T-46.29*T*LN(T);  4.00000E+03  N !
 FUNCTION GALBCC     298.15  +10083-4.813*T+GHSERAL#;   6000.   N !
 FUNCTION UN_ASS     298.14  0.0 ;  3.00000E+02  N !
 FUNCTION GHSERCU    298.14  -7770.458+130.485235*T-24.112392*T*LN(T)
     -.00265684*T**2+1.29223E-07*T**3+52478*T**(-1);  1.35777E+03  Y
      -13542.026+183.803828*T-31.38*T*LN(T)+3.64167E+29*T**(-9);  
     3.20000E+03  N !
 FUNCTION GHSERCC    298.15  -17368.441+170.73*T-24.3*T*LN(T)
     -4.723E-04*T**2+2562600*T**(-1)-2.643E+08*T**(-2)+1.2E+10*T**(-3);   
     6000.   N !
 FUNCTION GPFEBCC    298.15  +YFEBCC#*EXP(ZFEBCC#);   6000.   N !
 FUNCTION GPCGRA     298.15  +YCGRA#*EXP(ZCGRA#);   6000.   N !
 FUNCTION GMNBCC     298.14  -3235.3+127.85*T-23.7*T*LN(T)
     -.00744271*T**2+60000*T**(-1);  1.51900E+03  Y
      -23188.83+307.7043*T-48*T*LN(T)+1.265152E+30*T**(-9);  2000.  N !
 FUNCTION GHSERNB    298.14  -8519.353+142.045475*T-26.4711*T*LN(T)
     +2.03475E-04*T**2-3.5012E-07*T**3+93399*T**(-1);  2.75000E+03  Y
     -37669.3+271.720843*T-41.77*T*LN(T)+1.528238E+32*T**(-9); 6000. N !
 FUNCTION GNIBCC     298.15  +8715.084-3.556*T+GHSERNI#;   6000.  N !
 FUNCTION GPPRED     2.50000E+02  -25976.559+148.685002*T-25.55*T*LN(T)
     +.0034121*T**2-2.418867E-06*T**3+160095*T**(-1);  5.00000E+02  Y
      -21723.721+77.684737*T-14.368*T*LN(T)-.00957685*T**2+3.93917E-07*T**3
     -141375*T**(-1);  8.52350E+02  Y
      -119408.413+1026.04262*T-149.449556*T*LN(T)+.067272364*T**2
     -6.651929E-06*T**3+12495943*T**(-1);  1.50000E+03  Y
      -24524.119+153.852181*T-26.326*T*LN(T);  3000.  N !
 FUNCTION GHSERSS    298.14  -5228.956+55.417762*T-11.007*T*LN(T)
     -.026529*T**2+7.754333E-06*T**3;  3.68300E+02  Y
      -6513.769+94.692922*T-17.941839*T*LN(T)-.010895125*T**2
     +1.402558E-06*T**3+39910*T**(-1);  1.30000E+03  N !
 FUNCTION GSIBCC     298.15  +47000-22.5*T+GHSERSI#;   6000.   N !
 FUNCTION GTIBCC     298.14  -1272.064+134.71418*T-25.5768*T*LN(T)
     -6.63845E-04*T**2-2.78803E-07*T**3+7208*T**(-1);  1.15500E+03  Y
      +6667.385+105.366379*T-22.3771*T*LN(T)+.00121707*T**2-8.4534E-07*T**3
     -2002750*T**(-1);  1.94100E+03  Y
      +26483.26-182.426471*T+19.0900905*T*LN(T)-.02200832*T**2
     +1.228863E-06*T**3+1400501*T**(-1);  4.00000E+03  N !
 FUNCTION GHSERTIC   298.15  -168261.31+293.73187*T-48.0195*T*LN(T)
     -.00272*T**2+819000*T**(-1)-2.03E+09*T**(-3);   6000.   N !
 FUNCTION LALFEB0    298.15  -30740+7.9972*T+ALFEW1#;   6000.   N  !
 FUNCTION ALFEW1     298.15  +860*R#;   6000.   N !
 FUNCTION LALFEB1    298.15  368.15;   6000.   N !
 FUNCTION ETCALFE    298.15  63;   6000.   N !
 FUNCTION ETCFESI    298.15  63;   6000.   N !
 FUNCTION L1BCC      298.15  -11544;   6000.   N !
 FUNCTION L2BCC      298.15  3890;   6000.   N !
 FUNCTION FESIW1     298.15  +1260*R#;   6000.   N !
 FUNCTION L0BCC      298.15  -27809+11.62*T;   6000.   N !
 FUNCTION GHSERAL    298.14  -7976.15+137.093038*T-24.3671976*T*LN(T)
     -.001884662*T**2-8.77664E-07*T**3+74092*T**(-1);  7.00000E+02  Y
      -11276.24+223.048446*T-38.5844296*T*LN(T)+.018531982*T**2
     -5.764227E-06*T**3+74092*T**(-1);  9.33470E+02  Y
      -11278.378+188.684153*T-31.748192*T*LN(T)-1.230524E+28*T**(-9);  
     2.90000E+03  N !
 FUNCTION GFEFCC     298.14  -1462.4+8.282*T-1.15*T*LN(T)+6.4E-04*T**2
     +GHSERFE#;  1.81100E+03  Y
      -1713.815+.94001*T+4.9251E+30*T**(-9)+GHSERFE#;  6000.  N !
 FUNCTION GPFEFCC    298.15  +YFEFCC#*EXP(ZFEFCC#);   6000.   N !
 FUNCTION GPCFCC     298.15  +YCFCC#*EXP(ZFEFCC#);   6000.   N !
 FUNCTION GMNFCC     298.14  -3439.3+131.884*T-24.5177*T*LN(T)
     -.006*T**2+69600*T**(-1);  1.51900E+03  Y
      -26070.1+309.6664*T-48*T*LN(T)+3.86196E+30*T**(-9);  2000.  N !
 FUNCTION GHEXTNB    298.15  -8519.353+142.045475*T-26.4711*T*LN(T)
     +2.03475E-04*T**2-3.5012E-07*T**3+93399*T**(-1);   6000.   N !
 FUNCTION GHSERSI    298.14  -8162.609+137.236859*T-22.8317533*T*LN(T)
     -.001912904*T**2-3.552E-09*T**3+176667*T**(-1);  1.68700E+03  Y
      -9457.642+167.281367*T-27.196*T*LN(T)-4.20369E+30*T**(-9);  
     3.60000E+03  N !
 FUNCTION GHSERTI    298.14  -8059.921+133.615208*T-23.9933*T*LN(T)
     -.004777975*T**2+1.06716E-07*T**3+72636*T**(-1);  9.00000E+02  Y
      -7811.815+132.988068*T-23.9887*T*LN(T)-.0042033*T**2-9.0876E-08*T**3
     +42680*T**(-1);  1.15500E+03  Y
      +908.837+66.976538*T-14.9466*T*LN(T)-.0081465*T**2+2.02715E-07*T**3
     -1477660*T**(-1);  1.94100E+03  Y
      -124526.786+638.806871*T-87.2182461*T*LN(T)+.008204849*T**2
     -3.04747E-07*T**3+36699805*T**(-1);  4.00000E+03  N !
 FUNCTION GALHCP     298.15  +5481-1.799*T+GHSERAL#;   6000.   N !
 FUNCTION GPFEHCP    298.15  +YFEHCP#*EXP(ZFEHCP#);   6000.   N !
 FUNCTION GPCDIA     298.15  +YCDIA#*EXP(ZCDIA#);   6000.   N !
 FUNCTION GHSERPP    2.50000E+02  -43821.799+1026.69389*T-178.426*T*LN(T)
     +.290708*T**2-1.04022667E-04*T**3+1632695*T**(-1);  3.17300E+02  Y
      -9587.448+152.341487*T-28.7335301*T*LN(T)+.001715669*T**2
     -2.2829E-07*T**3+172966*T**(-1);  1.00000E+03  Y
      -8093.075+135.876831*T-26.326*T*LN(T);  3000.  N !
 FUNCTION GFECEM     298.15  -10745+706.04*T-120.6*T*LN(T)+GPCEM1#;   
     6000.   N !
 FUNCTION GFEM23C6   298.15  +7.666667*GFECEM#-1.666667*GHSERCC#+66920
     -40*T;   6000.   N !
 FUNCTION GMNM23C6   298.15  -308065+50.966*T+23*GHSERMN#+6*GHSERCC#;   
     6000.   N !
 FUNCTION GNIM23C6   298.15  +23*GHSERNI#+6*GHSERCC#+210000-84.71*T;   
     6000.   N !
 FUNCTION GMN3SI     298.14  -31047.468+195.60933*T-32.920521*T*LN(T)
     -.0019425154*T**2+414300.232*T**(-1);  9.50000E+02  Y
      -29935.151+194.43847*T-32.920521*T*LN(T)-.0019425154*T**2
     +414300.232*T**(-1);  6000.  N !
 FUNCTION GFES       298.14  -107518-18.19*T+1.78*T*LN(T)+GHSERFE#
     +GHSERSS#;  2000.  N !
 FUNCTION GMNS       298.14  -227939.777+241.371716*T-47.6976*T*LN(T)
     -.0037656*T**2;  1.80300E+03  Y
      -250399.789+391.333612*T-66.944*T*LN(T);  3000.  N !
 FUNCTION GNIS       298.15  -106931.56+215.62628*T-38.911202*T*LN(T)
     -.0133888*T**2;   6000.   N !
 FUNCTION GNIS2      298.15  -51033.75+115.36531*T-20.222666*T*LN(T)
     -.004218867*T**2;   6000.   N !
 FUNCTION YCLIQ      298.15  +VCLIQ#*EXP(-ECLIQ#);   6000.   N !
 FUNCTION ZCLIQ      298.15  +1*LN(XCLIQ#);   6000.   N !
 FUNCTION YFELIQ     298.15  +VFELIQ#*EXP(-EFELIQ#);   6000.   N !
 FUNCTION ZFELIQ     298.15  +1*LN(XFELIQ#);   6000.   N !
 FUNCTION YFEBCC     298.15  +VFEBCC#*EXP(-EFEBCC#);   6000.   N !
 FUNCTION ZFEBCC     298.15  +1*LN(XFEBCC#);   6000.   N !
 FUNCTION YCGRA      298.15  +VCGRA#*EXP(-ECGRA#);   6000.   N !
 FUNCTION ZCGRA      298.15  +1*LN(XCGRA#);   6000.   N !
 FUNCTION YFEFCC     298.15  +VFEFCC#*EXP(-EFEFCC#);   6000.   N !
 FUNCTION ZFEFCC     298.15  +1*LN(XFEFCC#);   6000.   N !
 FUNCTION YCFCC      298.15  +VCFCC#*EXP(-EFEFCC#);   6000.   N !
 FUNCTION YFEHCP     298.15  +VFEHCP#*EXP(-EFEHCP#);   6000.   N !
 FUNCTION ZFEHCP     298.15  +1*LN(XFEHCP#);   6000.   N !
 FUNCTION YCDIA      298.15  +VCDIA#*EXP(-ECDIA#);   6000.   N !
 FUNCTION ZCDIA      298.15  +1*LN(XCDIA#);   6000.   N !
 FUNCTION GPCEM1     298.15  +VCEM1#*P;   6000.   N !
 FUNCTION VCLIQ      298.15  +7.626E-06*EXP(ACLIQ#);   6000.   N !
 FUNCTION ECLIQ      298.15  +1*LN(CCLIQ#);   6000.   N !
 FUNCTION XCLIQ      298.15  +1*EXP(.5*DCLIQ#)-1;   6000.   N !
 FUNCTION VFELIQ     298.15  +6.46677E-06*EXP(AFELIQ#);   6000.    N !
 FUNCTION EFELIQ     298.15  +1*LN(CFELIQ#);   6000.   N !
 FUNCTION XFELIQ     298.15  +1*EXP(.8484467*DFELIQ#)-1;   6000.   N !
 FUNCTION VFEBCC     298.15  +7.042095E-06*EXP(AFEBCC#);   6000.   N !
 FUNCTION EFEBCC     298.15  +1*LN(CFEBCC#);   6000.   N !
 FUNCTION XFEBCC     298.15  +1*EXP(.7874195*DFEBCC#)-1;   6000.   N !
 FUNCTION VCGRA      298.15  +5.259E-06*EXP(ACGRA#);   6000.   N !
 FUNCTION ECGRA      298.15  +1*LN(CCGRA#);   6000.   N !
 FUNCTION XCGRA      298.15  +1*EXP(.9166667*DCGRA#)-1;   6000.    N !
 FUNCTION VFEFCC     298.15  +6.688726E-06*EXP(AFEFCC#);   6000.   N !
 FUNCTION EFEFCC     298.15  +1*LN(CFEFCC#);   6000.   N !
 FUNCTION XFEFCC     298.15  +1*EXP(.8064454*DFEFCC#)-1;   6000.   N !
 FUNCTION VCFCC      298.15  +1.031E-05*EXP(ACFCC#);   6000.   N !
 FUNCTION VFEHCP     298.15  +6.59121E-06*EXP(AFEHCP#);   6000.    N !
 FUNCTION EFEHCP     298.15  +1*LN(CFEHCP#);   6000.   N !
 FUNCTION XFEHCP     298.15  +1*EXP(.8064454*DFEHCP#)-1;   6000.   N !
 FUNCTION VCDIA      298.15  +3.412E-06*EXP(ACDIA#);   6000.   N !
 FUNCTION ECDIA      298.15  +1*LN(CCDIA#);   6000.   N !
 FUNCTION XCDIA      298.15  +1*EXP(.8*DCDIA#)-1;   6000.   N !
 FUNCTION VCEM1      298.15  +2.339E-05*EXP(ACEM1#);   6000.   N !
 FUNCTION ACLIQ      298.15  +2.32E-05*T+2.85E-09*T**2;   6000.    N !
 FUNCTION CCLIQ      298.15  1.6E-10;   6000.   N !
 FUNCTION DCLIQ      298.15  +1*LN(BCLIQ#);   6000.   N !
 FUNCTION AFELIQ     298.15  +1.135E-04*T;   6000.   N !
 FUNCTION CFELIQ     298.15  +4.22534787E-12+2.71569924E-14*T;   6000.   N !
 FUNCTION DFELIQ     298.15  +1*LN(BFELIQ#);   6000.   N !
 FUNCTION AFEBCC     298.15  +2.3987E-05*T+1.2845E-08*T**2;    6000.   N !
 FUNCTION CFEBCC     298.15  +2.20949565E-11+2.41329523E-16*T;    6000.   N !
 FUNCTION DFEBCC     298.15  +1*LN(BFEBCC#);   6000.   N !
 FUNCTION ACGRA      298.15  +2.32E-05*T+2.85E-09*T**2;   6000.    N !
 FUNCTION CCGRA      298.15  3.3E-10;   6000.   N !
 FUNCTION DCGRA      298.15  +1*LN(BCGRA#);   6000.   N !
 FUNCTION AFEFCC     298.15  +7.3097E-05*T;   6000.   N !
 FUNCTION CFEFCC     298.15  +2.62285341E-11+2.71455808E-16*T;    6000.   N !
 FUNCTION DFEFCC     298.15  +1*LN(BFEFCC#);   6000.   N !
 FUNCTION ACFCC      298.15  +1.44E-04*T;   6000.   N !
 FUNCTION AFEHCP     298.15  +7.3646E-05*T;   6000.   N !
 FUNCTION CFEHCP     298.15  +2.62285341E-11+2.71455808E-16*T;    6000.   N !
 FUNCTION DFEHCP     298.15  +1*LN(BFEHCP#);   6000.   N !
 FUNCTION ACDIA      298.15  +2.43E-06*T+5E-09*T**2;   6000.   N !
 FUNCTION CCDIA      298.15  6.8E-12;   6000.   N !
 FUNCTION DCDIA      298.15  +1*LN(BCDIA#);   6000.   N !
 FUNCTION ACEM1      298.15  -1.36E-05*T+4E-08*T**2;   6000.   N !
 FUNCTION BCLIQ      298.15  +1+3.2E-10*P;   6000.   N !
 FUNCTION BFELIQ     298.15  +1+4.98009787E-12*P+3.20078924E-14*T*P; 6000. N !
 FUNCTION BFEBCC     298.15  +1+2.80599565E-11*P+3.06481523E-16*T*P; 6000. N !
 FUNCTION BCGRA      298.15  +1+3.6E-10*P;   6000.   N !
 FUNCTION BFEFCC     298.15  +1+3.25236341E-11*P+3.36607808E-16*T*P; 6000. N !
 FUNCTION BFEHCP     298.15  +1+3.25236341E-11*P+3.36607808E-16*T*P; 6000. N !
 FUNCTION BCDIA      298.15  +1+8.5E-12*P;   6000.   N !

 FUNCTION F10383T    298.15  +211801.621+24.4989821*T-20.78611*T*LN(T); 
       6000.   N !
 FUNCTION F10711T    298.14  +130854.682+30.5267876*T-34.25937*T*LN(T)
     +.00583824*T**2-1.79746E-06*T**3-33304.895*T**(-1);  7.00000E+02  Y
      +133769.365-23.7043906*T-25.65337*T*LN(T)-.0042003385*T**2
     +2.51694667E-07*T**3-174588.25*T**(-1);  2.20000E+03  Y
      +140179.423-26.622816*T-25.86682*T*LN(T)-.00276017*T**2
     +9.24508333E-08*T**3-3805126*T**(-1);  6000.  N !
 FUNCTION F10784T    298.14  -9522.9741+78.5273879*T-31.35707*T*LN(T)
     +.0027589925*T**2-7.46390667E-07*T**3+56582.3*T**(-1);  1.00000E+03  Y
      +180.108664-15.6128256*T-17.84857*T*LN(T)-.00584168*T**2
     +3.14618667E-07*T**3-1280036*T**(-1);  2.10000E+03  Y
      -18840.1663+92.3120255*T-32.05082*T*LN(T)-.0010728235*T**2
     +1.14281783E-08*T**3+3561002.5*T**(-1);  6000.  N !
 FUNCTION F11002T    298.14  -28637.4628-29.7124458*T-25.37431*T*LN(T)
     -.012230205*T**2+6.62201E-07*T**3-86459.2*T**(-1);  9.00000E+02  Y
      -38442.2654+51.1969052*T-36.54058*T*LN(T)-.007461545*T**2
     +4.40338167E-07*T**3+1395975*T**(-1);  2.20000E+03  Y
      -65256.7666+203.938596*T-56.66161*T*LN(T)-6.40182E-04*T**2
     +2.14147833E-09*T**3+8250950*T**(-1);  6000.  N !
 FUNCTION F11007T    298.14  -1716.28163+84.8441289*T-51.37952*T*LN(T)
     -.00808767*T**2+210246*T**(-1);  1.00000E+03  N !
 FUNCTION F14852T    298.14  +269797.373+2.2810296*T-25.70471*T*LN(T)
     +.003751372*T**2-5.48887167E-07*T**3+3450.3165*T**(-1);  1.00000E+03  Y
      +273925.002-38.4958652*T-19.81748*T*LN(T)-2.300353E-04*T**2
     -1.18709967E-08*T**3-570436.5*T**(-1);  3.40000E+03  Y
      +257401.532-.943966729*T-24.05931*T*LN(T)-5.98546E-07*T**2
     +2.02961167E-09*T**3+9368165*T**(-1);  1.00000E+04  N !
 FUNCTION F14964T    298.14  +117374.548+2.98629624*T-34.09678*T*LN(T)
     -.002325464*T**2+1.85480167E-07*T**3+128593.6*T**(-1);  1.00000E+03  Y
      +117352.438+2.50383325*T-34.04744*T*LN(T)-.0021150245*T**2
     +9.16602333E-08*T**3+175718.45*T**(-1);  3.40000E+03  Y
      +124361.091+14.5182901*T-36.1923*T*LN(T)-5.930925E-04*T**2
     -7.54259333E-09*T**3-7484105*T**(-1);  6000.  N !
 FUNCTION F15022T    298.14  +126744.315+83.8435689*T-52.94561*T*LN(T)
     -.0043385055*T**2+6.68300333E-07*T**3+276938.3*T**(-1);  1.00000E+03  Y
      +123958.871+118.720436*T-58.16242*T*LN(T)-7.29079E-06*T**2
     +2.42566833E-10*T**3+558805*T**(-1);  6000.  N !
 FUNCTION F15041T    298.14  +109847.438+203.904963*T-72.67966*T*LN(T)
     -.009041155*T**2+1.47148883E-06*T**3+505278*T**(-1);  9.00000E+02  Y
      +104526.08+272.793563*T-83.05028*T*LN(T)-1.828101E-05*T**2
     +6.19803333E-10*T**3+1023588.5*T**(-1);  6000.  N !
 FUNCTION F15047T    298.14  +106276.072+170.263399*T-74.99022*T*LN(T)
     -.035336475*T**2+5.76872833E-06*T**3+227070.6*T**(-1);  9.00000E+02  Y
      +75139.8847+544.891054*T-130.537*T*LN(T)+.007879015*T**2
     -4.32610333E-07*T**3+3425257*T**(-1);  2.80000E+03  Y
      +114904.753+339.945759*T-103.9801*T*LN(T)+2.25877E-05*T**2
     -7.925025E-10*T**3-7832715*T**(-1);  6000.  N !
 FUNCTION F15052T    298.14  +57214.7948+523.24074*T-130.1838*T*LN(T)
     -4.152356E-04*T**2-4.27131667E-07*T**3+779118.5*T**(-1);  1.60000E+03  Y
      +8925.72335+728.509037*T-155.3363*T*LN(T)+.002031178*T**2
     -1.776135E-08*T**3+14908280*T**(-1);  4.20000E+03  Y
      +43158.7838+657.511854*T-147.3935*T*LN(T)+.0015928905*T**2
     -3.34608333E-08*T**3-8046775*T**(-1);  6000.  N !
 FUNCTION F15057T    298.14  +59623.0027+634.182529*T-153.2939*T*LN(T)
     -.003102847*T**2+3.66153167E-07*T**3+940068*T**(-1);  1.50000E+03  Y
      +56671.3245+666.288106*T-157.9591*T*LN(T)-2.441417E-06*T**2
     +7.28532E-11*T**3+1284129.5*T**(-1);  6000.  N !
 FUNCTION F15061T    298.14  +45619.0277+695.996674*T-166.1987*T*LN(T)
     -.0109886*T**2-1.38875683E-06*T**3+753634*T**(-1);  8.00000E+02  Y
      +22301.584+822.41812*T-181.0091*T*LN(T)-.020252625*T**2
     +3.04543E-06*T**3+4785936*T**(-1);  1.50000E+03  Y
      +28125.3352+992.470207*T-208.7199*T*LN(T)+.006139635*T**2
     -2.57977667E-07*T**3-2943090*T**(-1);  3.90000E+03  Y
      +82396.4096+766.112131*T-180.3439*T*LN(T)-2.580219E-04*T**2
     +5.17172833E-09*T**3-21845450*T**(-1);  6000.  N !

 FUNCTION UALFE     298.15 -4000+T;  6000   N !
 FUNCTION GALFE3    298.15 +3*UALFE#-4000;  6000   N !
 FUNCTION GAL2FE2   298.15 +4*UALFE#;  6000   N !
 FUNCTION GAL3FE    298.15 +3*UALFE#+9000;  6000   N !
 FUNCTION SROALFE   298.15 +UALFE#;  6000   N !
 FUNCTION LFALFE0   298.15 -104700+30.65*T;  6000   N !
 FUNCTION LFALFE1   298.15 22600;  6000   N !
 FUNCTION LFALFE2   298.15 +29100-13*T;  6000   N !
 FUNCTION UKALFEC   298.15 -1600-16.8*T;  6000   N !
 FUNCTION GKALFE3C  298.15 +3*UKALFEC#;  6000   N !
 FUNCTION GKAL2FE2  298.15 +4*UKALFEC#-5200;  6000   N !
 FUNCTION GKAL3FEC  298.15 +3*UKALFEC#;  6000   N !
 FUNCTION SROKALFE  298.15 +UKALFEC#;  6000   N !
 FUNCTION B2ALVA    298.15 +10000-T;  6000   N !
 FUNCTION LB2ALVA   298.15 100000;  6000   N !
 FUNCTION GB2ALFE   298.15 -10876+2.6*T;  6000   N !
 FUNCTION DGBALFE   298.15 -4530+2.5*T;  6000   N !
 FUNCTION DT0ALFE   298.15 -250;  6000   N !
 FUNCTION DB0ALFE   298.15 -1.2;  6000   N !
 FUNCTION ZERO       298.15 0.0; 6000.00  N !
 FUNCTION RTLN25    298.15 -.562335*R#*T;  6000   N !




 TYPE_DEFINITION % SEQ *!
 DEFINE_SYSTEM_DEFAULT ELEMENT 2 !
 DEFAULT_COMMAND DEF_SYS_ELEMENT VA !


 PHASE GAS:G %  1  1.0  !
    CONSTITUENT GAS:G :H,H1S1,H2,H2S1,H2S2,N2,S,S2,S3,S4,S5,S6,S7,S8 :  !

PARA G(GAS,H;0)  298.15  +F10383T#+R#*T*LN(1E-05*P);    6000.   N REF:5996 !
PARA G(GAS,H1S1;0)  298.15  +F10711T#+R#*T*LN(1E-05*P); 6000.   N REF:6106 !
PARA G(GAS,H2;0)  298.15  +F10784T#+R#*T*LN(1E-05*P);   6000.   N REF:6132 !
PARA G(GAS,H2S1;0)  298.15  +F11002T#+R#*T*LN(1E-05*P); 6000.   N REF:6229 !
PARA G(GAS,H2S2;0)  298.15  +F11007T#+R#*T*LN(1E-05*P); 6000.   N REF:6231 !
PARA G(GAS,N2;0)  298.15  +2*GHSERNN#+RTLNP#;           6000.   N REF:279 !
PARA G(GAS,S;0)   298.15  +F14852T#+R#*T*LN(1E-05*P);   6000.   N REF:8357 !
PARA G(GAS,S2;0)  298.15  +F14964T#+R#*T*LN(1E-05*P);   6000.   N REF:8425 !
PARA G(GAS,S3;0)  298.15  +F15022T#+R#*T*LN(1E-05*P);   6000.   N REF:8458 !
PARA G(GAS,S4;0)  298.15  +F15041T#+R#*T*LN(1E-05*P);   6000.   N REF:8472 !
PARA G(GAS,S5;0)  298.15  +F15047T#+R#*T*LN(1E-05*P);   6000.   N REF:8476 !
PARA G(GAS,S6;0)  298.15  +F15052T#+R#*T*LN(1E-05*P);   6000.   N REF:8478 !
PARA G(GAS,S7;0)  298.15  +F15057T#+R#*T*LN(1E-05*P);   6000.   N REF:8480 !
PARA G(GAS,S8;0)  298.15  +F15061T#+R#*T*LN(1E-05*P);   6000.   N REF:8482 !


 PHASE LIQUID:L %  1  1.0  !
    CONSTITUENT LIQUID:L :AL,ALN%,C,CU,CU2S,FE,FES,MN,MNS%,N,NB,NI,NIS,P,S,
    SI,SIN4/3%,TI :  !

PARA G(LIQUID,AL;0)  298.14  +GALLIQ#;  2.90000E+03  N REF:279 !
PARA G(LIQUID,C;0)  298.15  +GCLIQ#+GPCLIQ#;   6000.   N  REF:279 !
PARA G(LIQUID,CU;0)  298.14  +GCULIQ#;  3.20000E+03  N REF:279 !
PARA G(LIQUID,CU2S;0)  298.14  +GDIGENIT#+10337.5-7.9899*T; 6000. N BJL06 !
PARA G(LIQUID,FE;0)  298.15  +GFELIQ#+GPFELIQ#;   6000.    N REF:279 !
PARA G(LIQUID,FES;0)  298.14  -104225-1.479*T+GFELIQ#+GSSLIQ#; 
     3000. N REF:456 !
PARA G(LIQUID,MN;0)  298.14  +GMNLIQ#;  2000.  N REF:279 !
PARA G(LIQUID,MNS;0)  298.14  +GMNLIQ#+GSSLIQ#-220526+7.05485*T;
     3000.  N REF:459 !
PARA G(LIQUID,NB;0)  298.15  +GNBLIQ#;   6000.   N  REF:279 !
PARA G(LIQUID,NI;0)  298.14  +GNILIQ#;  3000.  N REF:279 !
PARA G(LIQUID,NIS;0)  298.15  -77658.84+6.1286*T+GNILIQ#+GSSLIQ#;
     6000.   N REF:422 !
PARA G(LIQUID,P;0)  2.50000E+02  +GPPLIQ#;  3000.  N REF:279 !
PARA G(LIQUID,S;0)  298.14  +GSSLIQ#;  1.30000E+03  N REF:279 !
PARA G(LIQUID,SI;0)  298.14  +GSILIQ#;  3.60000E+03  N REF:279 !
PARA G(LIQUID,TI;0)  298.14  +GTILIQ#;  4.00000E+03  N REF:279 !
PARA G(LIQUID,ALN;0)  298.15  +GALNLIQ#;   6000.   N  REF:370 !
PARA G(LIQUID,N;0)  298.15  +GNLIQ#;   6000.   N REF:279 !
PARA G(LIQUID,SIN4/3;0)  298.15  +.333333333*GSI3N4LI#;   6000.   N REF:423 !
PARA G(LIQUID,AL,FE,N;0)  298.15  -258830;   6000.   N  REF:370 !
PARA G(LIQUID,AL,N;0)  298.15  -61000+78*T;   6000.   N  REF:370 !
PARA G(LIQUID,AL,ALN;0)  298.15  +285000-52*T;   6000.    N REF:325 !
PARA G(LIQUID,AL,SIN4/3;0)  298.15  +250*T;   6000.   N  REF:325 !
PARA G(LIQUID,ALN,FE;0)  298.15  +250*T;   6000.   N  REF:325 !
PARA G(LIQUID,C,FE,N;0)  298.15  +490996-109.135*T;    6000.   N REF:311 !
PARA G(LIQUID,C,FE,N;1)  298.15  +192167-109.135*T;    6000.   N REF:311 !
PARA G(LIQUID,C,FE,N;2)  298.15  +490996-109.135*T;    6000.   N REF:311 !
PARA G(LIQUID,CU,FE,N;0)  298.15  -6005;   6000.   N  REF:334 !
PARA G(LIQUID,CU,N;0)  298.15  33115;   6000.   N REF:334 !
PARA G(LIQUID,FE,MN,N;0)  298.15  -15211+18.43*T;   6000.  N REF:340 !
PARA G(LIQUID,FE,N;0)  298.15  -19930-12.01*T;   6000.    N REF:124 !
PARA G(LIQUID,FE,N,NB;0)  298.15  -160000;   6000.   N  REF:459 !
PARA G(LIQUID,FE,N,TI;0)  298.15  -300000;   6000.   N  REF:459 !
PARA G(LIQUID,FE,SIN4/3;0)  298.15  +250*T;   6000.   N  REF:325 !
PARA G(LIQUID,MN,N;0)  298.15  -142308+6.0759*T;   6000.   N REF:339 !
PARA G(LIQUID,MN,N;1)  298.15  32906;   6000.   N REF:339 !
PARA G(LIQUID,N,NB;0)  298.15  -292101;   6000.   N  REF:326 !
PARA G(LIQUID,N,NB;1)  298.15  -105406;   6000.   N  REF:326 !
PARA G(LIQUID,N,NI;0)  298.15  14981;   6000.   N REF:126 !
PARA G(LIQUID,N,TI;0)  298.15  -376354.15;   6000.   N  REF:337 !
PARA G(LIQUID,N,TI;1)  298.15  -98242.29;   6000.   N  REF:337 !
PARA G(LIQUID,SI,SIN4/3;0)  298.15  +285000-52*T;   6000.  N REF:325 !
PARA G(LIQUID,AL,C;0)  298.15  +40861.02-33.21138*T;   6000.   N REF:378 !
PARA G(LIQUID,AL,C,FE;0) 298.15 -49000;  6000.  N  07Sun2 !
PARA G(LIQUID,AL,CU;0)  298.15  -66622+8.1*T;   6000.   N  REF:355 !
PARA G(LIQUID,AL,CU;1)  298.15  +46800-90.8*T+10*T*LN(T);  6000.   N REF:355 !
PARA G(LIQUID,AL,CU;2)  298.15  -2812;   6000.   N  REF:355 !
PARA G(LIQUID,AL,FE;0)  298.15  -91976.5+22.1314*T;    6000.   N REF:282 !
PARA G(LIQUID,AL,FE;1)  298.15  -5672.58+4.8728*T;    6000.   N REF:282 !
PARA G(LIQUID,AL,FE;2)  298.15  121.9;   6000.   N  REF:282 !
PARA G(LIQUID,AL,MN;0)  298.15  -66174+27.0988*T;   6000.  N REF:274 !
PARA G(LIQUID,AL,MN;1)  298.15  -7509+5.4836*T;   6000.    N REF:274 !
PARA G(LIQUID,AL,MN;2)  298.15  -2639;   6000.   N  REF:274 !
PARA G(LIQUID,AL,NB;0)  298.15  -91000+25*T;   6000.   N  REF:372 !
PARA G(LIQUID,AL,NB;1)  298.15  6000;   6000.   N REF:372 !
PARA G(LIQUID,AL,NB;2)  298.15  15000;   6000.   N  REF:372 !
PARA G(LIQUID,AL,NI;0)  298.15  -207109.28+41.31501*T;    6000.   N REF:404 !
PARA G(LIQUID,AL,NI;1)  298.15  -10185.79+5.8714*T;    6000.   N REF:404 !
PARA G(LIQUID,AL,NI;2)  298.15  +81204.81-31.95713*T;    6000.   N REF:404 !
PARA G(LIQUID,AL,NI;3)  298.15  +4365.35-2.51632*T;    6000.   N REF:404 !
PARA G(LIQUID,AL,NI;4)  298.15  -22101.64+13.16341*T;    6000.   N REF:404 !
PARA G(LIQUID,AL,SI;0)  298.15  -11340.1-1.23394*T;    6000.   N REF:376 !
PARA G(LIQUID,AL,SI;1)  298.15  -3530.93+1.35993*T;    6000.   N REF:376 !
PARA G(LIQUID,AL,SI;2)  298.15  2265.39;   6000.   N  REF:376 !
PARA G(LIQUID,AL,TI;0)  298.15  -108250+38*T;   6000.   N  REF:288 !
PARA G(LIQUID,AL,TI;1)  298.15  -6000+5*T;   6000.   N  REF:288 !
PARA G(LIQUID,AL,TI;2)  298.15  15000;   6000.   N  REF:288 !
PARA G(LIQUID,C,CU;0)  298.15  75000;   6000.   N REF:212 !
PARA G(LIQUID,C,CU,FE;0)  298.15  -76019;   6000.   N  REF:211 !
PARA G(LIQUID,C,FE;0)  298.15  -124320+28.5*T;   6000.    N REF:186 !
PARA G(LIQUID,C,FE;1)  298.15  19300;   6000.   N REF:186 !
PARA G(LIQUID,C,FE;2)  298.15  +49260-19*T;   6000.   N  REF:186 !
PARA G(LIQUID,C,FE,MN;0)  298.15  -45675;   6000.   N  REF:263 !
PARA G(LIQUID,C,FE,MN;1)  298.15  -12379;   6000.   N  REF:263 !
PARA G(LIQUID,C,FE,MN;2)  298.15  -12379;   6000.   N  REF:263 !
PARA G(LIQUID,C,FE,P;0)  298.15  -4100.5;   6000.   N  REF:390 !
PARA G(LIQUID,C,FE,P;1)  298.15  -251801.8+144.9988*T;    6000.   N REF:390 !
PARA G(LIQUID,C,FE,P;2)  298.15  5200.5;   6000.   N  REF:390 !
PARA G(LIQUID,C,FE,NI;0)  298.15  +122200-58.8*T;   6000.  N REF:188 !
PARA G(LIQUID,C,FE,NI;1)  298.15  +92200-58.8*T;   6000.   N REF:188 !
PARA G(LIQUID,C,FE,NI;2)  298.15  +152200-58.8*T;   6000.  N REF:188 !
PARA G(LIQUID,C,FE,SI;0)  298.15  191981.2;   6000.   N  REF:447 !
PARA G(LIQUID,C,FE,SI;1)  298.15  -188018.8;   6000.   N  REF:447 !
PARA G(LIQUID,C,FE,SI;2)  298.15  341981.2;   6000.   N  REF:447 !