$ Copyright 1999, Thermo-Calc AB, all rights reseverd

DATABASE_INFO ''
The Thermo-Calc Steels database, copyright 1999 Thermo-Calc AB'
upgraded by Byeong-Joo Lee and Bo Sundman at KTH in August 1999''
With the following elements:'
 Al B C Co Cr Cu Fe Mg Mn Mo N Nb Ni O P S Si Ti V W''
Approximate limits in composition are (mass per cent):'
 AL   5        CU    1      NB   1         SI   5'
 B    trace    MG    0.1    NI  20         TI   1'
 C    2        MN   15      O    trace     V    5'
 CO  15        MO    5      P    trace     W   15'
 CR  30        N     1      S    trace     FE  min 50''
The database cannot be used for alloys where the base metal in not Fe.'
It does not contain complete binaries or ternary systems,'
just the iron-rich corner.''
2000-01-20 First release/BOS'
'!

$ Update since 2000-01-20 by Byeong-Joo Lee
$
$ ref.445  : B. Hallstedt is not a co-author.
$
$ G(FCC,FE,TI:C,VA:0)          B.-J. Lee
$ G(MU_PHASE,FE:Ti:FE;0)        
$ G(MU_PHASE,FE:Ti:MO;0)       
$ G(MU_PHASE,FE:MO:TI;0)
$ G(MU_PHASE,FE:Ti:TI;0)
$ G(LAVES_PHASE,*:MO,TI;0) 
$
$ G(SIGMA,FE:CR:SI;0)          Bo Sundman, with Si only in the third sublattice
$ G(SIGMA,FE:CR:CR,SI;0)       Bo Sundman
$ G(SIGMA,FE:CR:FE,SI;0)       Bo Sundman
$ G(SIGMA,MN:CR:SI;0)          B.-J. Lee  to keep consistency with Fe-Cr-Si
$ G(SIGMA,MN:CR:CR,SI;0)      
$ G(SIGMA,MN:CR:MN,SI;0) 
$ G(SIGMA,NI:CR:SI;0) 
$ G(SIGMA,NI:CR:CR,SI;0) 
$ G(SIGMA,NI:CR:NI,SI;0) 
$
$ G(BCC_A2,CR,FE,MO:VA;0)     To make sigma more stable (+50K)
$ G(MU_PHASE,CR,FE:MO:FE;0)   To keep Fe-Cr-Mo
$ G(R_PHASE,*:MO:CR,FE,MO;0)  To keep Fe-Cr-Mo
$ G(FCC_A1,CR,FE,MO:VA;0)     To keep consistency with BCC
$
$ from Bosse,   2000. 10. 9
$ added parameter in liquid L(LIQ,Fe,Ni,P) = 500000 to avoid P liquid in 654SMO
$ changed parameter L(HCP,CR,MO:N)=-87828+71.885*T to destabilize HCP in 654SMO
$ changed parameter L(BCC,CR,CU:VA)=100000-10*T; to stabilize BCC in 2%Cu steel
$ changed parameter L(BCC,CU,NI:VA)=-20000; to stabilize BCC in 2% Cu steel
$ Added parameter L(BCC,CR,CU,FE:VA)=-60000; to stabilize BCC in 2% Cu steel
$ Added parameter L(FCC,CU,FE,MN:VA)=-50000; to destabilize HCP in 2% Cu steel
$ Added parameter L(FCC,FE,MN,NI:VA)=-20000; to destabilize HCP in 2% Cu steel
$
$ B.-J. Lee,    2000. 10. 19
$ G(LIQUID,CR,FE,MO;0)    To increase solidus temperature in duplex steels
$ G(BCC_A2,CR,FE,MO:VA;0) To keep consistency
$ G(FCC_A1,CR,FE,MO:VA;0) To keep consistency
$

 ELEMENT VA   VACUUM                    0.0000E+00  0.0000E+00  0.0000E+00!
 ELEMENT AL   FCC_A1                    2.6982E+01  4.5773E+03  2.8322E+01!
 ELEMENT B    BETA_RHOMBO_B             1.0811E+01  1.2220E+03  5.9000E+00!
 ELEMENT C    GRAPHITE                  1.2011E+01  1.0540E+03  5.7400E+00!
 ELEMENT CO   HCP_A3                    5.8933E+01  0.0000E+00  0.0000E+00!
 ELEMENT CR   BCC_A2                    5.1996E+01  4.0500E+03  2.3560E+01!
 ELEMENT CU   FCC_A1                    6.3546E+01  5.0041E+03  3.3150E+01!
 ELEMENT FE   BCC_A2                    5.5847E+01  4.4890E+03  2.7280E+01!
 ELEMENT MG   HCP_A3                    2.4305E+01  4.9980E+03  3.2671E+01!
 ELEMENT MN   CBCC_A12                  5.4938E+01  4.9960E+03  3.2008E+01!
 ELEMENT MO   BCC_A2                    9.5940E+01  4.5890E+03  2.8560E+01!
 ELEMENT N    1/2_MOLE_N2(G)            1.4007E+01  4.3350E+03  9.5751E+01!
 ELEMENT NB   BCC_A2                    9.2906E+01  5.2200E+03  3.6270E+01!
 ELEMENT NI   FCC_A1                    5.8690E+01  4.7870E+03  2.9796E+01!
 ELEMENT O    1/2_MOLE_O2(G)            1.5999E+01  4.3410E+03  1.0252E+02!
 ELEMENT P    WHITE                     3.0974E+01  0.0000E+00  0.0000E+00!
 ELEMENT S    FC_ORTHORHOMBIC           3.2066E+01  0.0000E+00  0.0000E+00!
 ELEMENT SI   DIAMOND_FCC_A4            2.8086E+01  3.2175E+03  1.8820E+01!
 ELEMENT TI   HCP_A3                    4.7880E+01  4.8100E+03  3.0648E+01!
 ELEMENT V    BCC_A2                    5.0941E+01  4.5070E+03  3.0890E+01!
 ELEMENT W    BCC_A2                    1.8385E+02  4.9700E+03  3.2620E+01!
$ ELEMENT ZN   HCP_A3                    6.5380E+01  5.6567E+03  4.1631E+01!
 ELEMENT /-   ELECTRON_GAS              0.0000E+00  0.0000E+00  0.0000E+00!

 SPECIES AL+3                        AL1/+3                      !
 SPECIES AL2O3                       AL2O3                       !
 SPECIES ALN                         AL1N1                       !
 SPECIES ALO3/2                      AL1O1.5                     !
 SPECIES B11C                        B11C1                       !
 SPECIES B12                         B12                         !
 SPECIES B2                          B2                          !
 SPECIES C2B                         B1C2                        !
 SPECIES CB2                         B2C1                        !
 SPECIES CR+2                        CR1/+2                      !
 SPECIES CR+3                        CR1/+3                      !
 SPECIES CRO3/2                      CR1O1.5                     !
 SPECIES CO+2                        CO1/+2                      !
 SPECIES CU+1                        CU1/+1                      !
 SPECIES CU+2                        CU1/+2                      !
 SPECIES CU+3                        CU1/+3                      !
 SPECIES CU2O                        CU2O1                       !
 SPECIES CUO                         CU1O1                       !
 SPECIES FE+2                        FE1/+2                      !
 SPECIES FE+3                        FE1/+3                      !
 SPECIES FE+4                        FE1/+4                      !
 SPECIES FE2O3                       FE2O3                       !
 SPECIES FEO                         FE1O1                       !
 SPECIES FEO3/2                      FE1O1.5                     !
 SPECIES FES                         FE1S1                       !
 SPECIES MN+2                        MN1/+2                      !
 SPECIES MN+3                        MN1/+3                      !
 SPECIES MN+4                        MN1/+4                      !
 SPECIES MNO                         MN1O1                       !
 SPECIES MNO3/2                      MN1O1.5                     !
 SPECIES MNS                         MN1S1                       !
 SPECIES MO+2                        MO1/+2                      !
 SPECIES N-3                         N1/-3                       !
 SPECIES N2                          N2                          !
 SPECIES N3                          N3                          !
 SPECIES NB+2                        NB1/+2                      !
 SPECIES NB+4                        NB1/+4                      !
 SPECIES NBO                         NB1O1                       !
 SPECIES NBO2                        NB1O2                       !
 SPECIES NI+2                        NI1/+2                      !
 SPECIES NI+3                        NI1/+3                      !
 SPECIES NIO                         NI1O1                       !
 SPECIES NIS                         NI1S1                       !
 SPECIES O-2                         O1/-2                       !
 SPECIES O2                          O2                          !
 SPECIES S-2                         S1/-2                       !
 SPECIES SI+4                        SI1/+4                      !
 SPECIES SI3N4                       N4SI3                       !
 SPECIES SIN4/3                      N1.33333SI1                 !
 SPECIES SIO2                        O2SI1                       !
 SPECIES SIO4-4                      O4SI1/-4                    !
 SPECIES TI+2                        TI1/+2                      !
 SPECIES TI+3                        TI1/+3                      !
 SPECIES TI+4                        TI1/+4                      !
 SPECIES TIO                         TI1O1                       !
 SPECIES TIO3/2                      TI1O1.5                     !
 SPECIES TIO2                        TI1O2                       !
 SPECIES V+2                         V1/+2                       !
 SPECIES W+2                         W1/+2                       !
 
DEFAULT-COMMAND DEFINE_SYSTEM_ELEMENT VA !
DEFAULT-COMMAND REJECT_PHASE ION L12_FCC B2_BCC B2_VACANCY HIGH_SIGMA !
DEFINE_SYSTEM_DEFAULT ELEMENT 2 !

TYPE_DEFINITION % SEQ * !
TYPE_DEFINITION F RND1 TCPATH\DATA\TCFE2000\TC99FUN.TDB !
REFERENCE_FILE TCPATH\DATA\TCFE2000\TC99REF.TDB !
$
$
TYPE_DEFINITION A GES A_P_D @ MAGNETIC  -1.0    4.00000E-01 !
TYPE_DEFINITION B GES A_P_D @ MAGNETIC  -3.0    2.80000E-01 !
$ TYPE_DEFINITION D IF(ALO3/2 OR CRO3/2 OR FEO OR MNO OR SIO2) THEN
$  GES AMEND_PHASE_DESCRIPTION LIQUID COMP_SET ,, ALN%,ALO3/2%,CRO3/2%,
$    FEO%,FEO3/2,MNO3/2%,MNS%,SIO2%,TIO2% : !

TYPE_DEFINITION S IF((CR OR NB OR TI OR V) AND (C OR N)) THEN 
  GES AMEND_PHASE_DESCRIPTION @ C_S ,, CR NB TI V:C N:!
TYPE_DEFINITION T IF((CR OR MO OR NB OR TI OR V) AND N) THEN 
  GES AMEND_PHASE_DESCRIPTION @ C_S ,, CR MO NB TI V:N:!
TYPE_DEFINITION U IF((CR OR MO OR TI OR V) AND (C OR N)) THEN 
  GES AMEND_PHASE_DESCRIPTION @ C_S ,, CR MO TI V:C N:!
TYPE_DEFINITION V IF((CR OR TI OR V) AND N) THEN 
  GES AMEND_PHASE_DESCRIPTION @ C_S ,, CR MO TI V:C N:!

$******************************************************************************
$==============================================================================
$                             Solution Phases
$==============================================================================
$******************************************************************************
$
PHASE GAS:G %  1  1.0  !
CONSTITUENT GAS:G :N2,O2 :  !
PARA G(GAS,N2;0) 298.15 +2.*GHSERNN#+RTLNP#;                      6000. N 279 !
PARA G(GAS,O2;0) 298.15 +GO2GAS#+RTLNP#;                          6000. N 279 !
 


$ PHASE LIQUID:L %D  1  1.0  !
PHASE LIQUID:L %  1  1.0  !
 CONSTITUENT LIQUID:L :AL,ALN,ALO3/2,B,C,CO,CR,CRO3/2,CU,
    FE%,FEO,FEO3/2,FES,MG,MN,MNO,MNO3/2,MNS,MO,N,NB,NBO,NBO2,NI,NIO,NIS,
    P,S,SI,SIN4/3,SIO2,TI,TIO,TIO3/2,TIO2,V,W : !
$    P,S,SI,SIN4/3,SIO2,TI,TIO,TIO3/2,TIO2,V,W,ZN : !
PAR G(LIQUID,AL;0) 298.15 +GALLIQ#;                               2900. N 279 !
PAR G(LIQUID,ALN;0)    298.15 +GALNLIQ#;                          6000. N 370 !
PAR G(LIQUID,ALO3/2;0) 298.15 +.5*GAL2O3_L#;                      3000. N 425 !
PAR G(LIQUID,B;0)  298.15 +GBLIQ#;                                6000. N 279 !
PAR G(LIQUID,C;0)  298.15 +GCLIQ#+GPCLIQ#;                        6000. N 279 !
PAR G(LIQUID,CO;0) 298.15 +GCOLIQ#;                               6000. N 279 !
PAR G(LIQUID,CR;0) 298.15 +GCRLIQ#+GPCRLIQ#;                      6000. N 279 !
PAR G(LIQUID,CRO3/2;0) 298.15 +.5*GCR2O3#+64852-24.915*T;         3000. N 415 !
PAR G(LIQUID,CU;0) 298.15 +GCULIQ#;                               3200. N 279 !
PAR G(LIQUID,FE;0) 298.15 +GFELIQ#+GPFELIQ#;                      6000. N 279 !
PAR G(LIQUID,FEO;0)    298.15 +GWUSTITE#+34008.3-20.9687*T;       3000. N 415 !
PAR G(LIQUID,FEO3/2;0) 298.15 +.5*GFE2O3#+39712.4-20.0068*T;      3000. N 415 !
PAR G(LIQUID,FES;0)    298.15 -104225-1.479*T+GFELIQ#+GSSLIQ#;    3000. N BOS !
PAR G(LIQUID,MG;0) 298.15 +GMGLIQ#;                               6000. N 279 !
PAR G(LIQUID,MN;0) 298.15 +GMNLIQ#;                               2000. N 279 !
PAR G(LIQUID,MNO;0)    298.15 +GMNO#+53125-25*T;                  6000. N 459 !
PAR G(LIQUID,MNO3/2;0) 298.15 +.5*GMN2O3#+58355-25*T;             6000. N 459 !
PAR G(LIQUID,MNS;0)    298.15 +GMNLIQ#+GSSLIQ#-220526+7.05485*T;  3000. N 459 !
PAR G(LIQUID,MO;0) 298.15 +GMOLIQ#+GPMOLIQ#;                      5000. N 279 !
PAR G(LIQUID,N;0)  298.15 +GNLIQ#;                                6000. N 279 !
PAR G(LIQUID,NB;0) 298.15 +GNBLIQ#;                               6000. N 279 !
PAR G(LIQUID,NBO;0)    298.15 +GNB1O1#+85353.6-38.6215*T+5000;    6000. N 325 !
PAR G(LIQUID,NBO2;0)   298.15 +GNB1O2#+92048-42.3209*T;           6000. N 325 !
PAR G(LIQUID,NI;0) 298.15 +GNILIQ#;                               3000. N 279 !
PAR G(LIQUID,NIO;0)    298.15 +GNIO#+54392-24.413*T;              3000. N 415 !
PAR G(LIQUID,NIS;0)    298.15 -77658.84+6.1286*T+GNILIQ#+GSSLIQ#; 
                                                                  6000. N 422 !
PAR G(LIQUID,P;0)  250.00 +GPPLIQ#;                               3000. N 279 !
PAR G(LIQUID,S;0)  298.15 +GSSLIQ#;                               1300. N 279 !
PAR G(LIQUID,SI;0) 298.15 +GSILIQ#;                               3600. N 279 !
PAR G(LIQUID,SIN4/3;0) 298.15 +.333333333*GSI3N4LI#;              6000. N 423 !
PAR G(LIQUID,SIO2;0)   298.15 +GSIO2LIQ#;                         6000. N 420 !
PAR G(LIQUID,TI;0) 298.15 +GTILIQ#;                               4000. N 279 !
PAR G(LIQUID,TIO;0)    298.15 +GTI1O1#+190233-91.5428*T;          4000. N 459 !
PAR G(LIQUID,TIO3/2;0) 298.15 +.5*GTI2O3#+95460-35.7449*T;        4000. N 353 !
PAR G(LIQUID,TIO2;0)   298.15 +GTIO2#+89002-31.2385*T;            4000. N 353 !
PAR G(LIQUID,V;0)  298.15 +GVLIQ#;                                4000. N 279 !
PAR G(LIQUID,W;0)  298.15 +GWLIQ#;                                6000. N 279 !
PAR G(LIQUID,ZN;0) 298.15 +GZNLIQ#;                               1700. N 279 !
PAR G(LIQUID,AL,B;0)  298.15  -12671.16+1.81016*T;    6000. N 366 !
PAR G(LIQUID,AL,B;1)  298.15  +31988.28;              6000. N 366 !
PAR G(LIQUID,AL,B;2)  298.15  -15873.74;              6000. N 366 !
PAR G(LIQUID,AL,C;0)  298.15  +40861.02-33.21138*T;   6000. N 378 !
PAR G(LIQUID,AL,CR;0) 298.15 -29000;                  6000. N 354 !
PAR G(LIQUID,AL,CR;1) 298.15 -11000;                  6000. N 354 !
PAR G(LIQUID,AL,CU;0) 298.15 -66622+8.1*T;             6000. N 355 !
PAR G(LIQUID,AL,CU;1) 298.15 +46800-90.8*T+10*T*LN(T); 6000. N 355 !
PAR G(LIQUID,AL,CU;2) 298.15 -2812;                    6000. N 355 !
PAR G(LIQUID,AL,FE;0) 298.15 -91976.5+22.1314*T;      6000. N 282 !
PAR G(LIQUID,AL,FE;1) 298.15 -5672.58+4.8728*T;       6000. N 282 !
PAR G(LIQUID,AL,FE;2) 298.15 +121.9;                  6000. N 282 !
PAR G(LIQUID,AL,MG;0) 298.15 -12000+8.566*T;          6000. N 287 !
PAR G(LIQUID,AL,MG;1) 298.15 +1894-3*T;               6000. N 287 !
PAR G(LIQUID,AL,MG;2) 298.15 +2000;                   6000. N 287 !
PAR G(LIQUID,AL,MN;0) 298.15 -66174+27.0988*T;        6000. N 274 !
PAR G(LIQUID,AL,MN;1) 298.15 -7509+5.4836*T;          6000. N 274 !
PAR G(LIQUID,AL,MN;2) 298.15 -2639;                   6000. N 274 !
PAR G(LIQUID,AL,MO;0) 298.15 -100000+35*T;            6000. N 371 !
PAR G(LIQUID,AL,MO;1) 298.15 -15000+6.3*T;            6000. N 371 !
$PAR G(LIQUID,AL,N;0)  298.15 -336826.61+103.22478*T;  6000. N 368 !
PAR G(LIQUID,AL,NB;0) 298.15 -91000+25*T;             6000. N 372 !
PAR G(LIQUID,AL,NB;1) 298.15 +6000;                   6000. N 372 !
PAR G(LIQUID,AL,NB;2) 298.15 +15000;                  6000. N 372 !
PAR G(LIQUID,AL,NI;0) 298.15 -207109.28+41.31501*T;   6000. N 404 !
PAR G(LIQUID,AL,NI;1) 298.15 -10185.79+5.8714*T;      6000. N 404 !
PAR G(LIQUID,AL,NI;2) 298.15 +81204.81-31.95713*T;    6000. N 404 !
PAR G(LIQUID,AL,NI;3) 298.15 +4365.35-2.51632*T;      6000. N 404 !
PAR G(LIQUID,AL,NI;4) 298.15 -22101.64+13.16341*T;    6000. N 404 !
PAR G(LIQUID,AL,SI;0) 298.15 -11340.1-1.23394*T;      6000. N 376 !
PAR G(LIQUID,AL,SI;1) 298.15 -3530.93+1.35993*T;      6000. N 376 !
PAR G(LIQUID,AL,SI;2) 298.15 +2265.39;                6000. N 376 !
PAR G(LIQUID,AL,TI;0) 298.15 -108250+38*T;            6000. N 288 !
PAR G(LIQUID,AL,TI;1) 298.15 -6000+5*T;               6000. N 288 !
PAR G(LIQUID,AL,TI;2) 298.15 +15000;                  6000. N 288 !
PAR G(LIQUID,AL,V;0)  298.15 -50725+9*T;              6000. N 288 !
PAR G(LIQUID,AL,V;1)  298.15 -15000+8*T;              6000. N 288 !
PAR G(LIQUID,AL,W;0)  298.15 -70000+35*T;             6000. N 373 !
PAR G(LIQUID,AL,W;1)  298.15 +1E-04;                  6000. N 373 !
PAR G(LIQUID,AL,W;2)  298.15 +15000;                  6000. N 373 !
PAR G(LIQUID,AL,ZN;0) 298.15 +10465.55-3.39259*T;     6000. N 449 !
PAR G(LIQUID,B,C;0)   298.15 -67045.16+4.46969*T;     6000. N 367 !
PAR G(LIQUID,B,C;1)   298.15 -36682.57+2.44551*T;     6000. N 367 !
PAR G(LIQUID,B,CR;0)  298.15 -165600+34*T;            6000. N 291 !
PAR G(LIQUID,B,CR;1)  298.15 -10000;                  6000. N 291 !
PAR G(LIQUID,B,CR;2)  298.15 +20000;                  6000. N 291 !
PAR G(LIQUID,B,CR,FE) 298.15 +20000;                  6000. N BOZ !
PAR G(LIQUID,B,FE;0)  298.15 -140000+42.834*T;        6000. N 291 !
PAR G(LIQUID,B,FE;1)  298.15 -1500;                   6000. N 291 !
PAR G(LIQUID,B,FE;2)  298.15 +20000;                  6000. N 291 !
PAR G(LIQUID,B,MO;0)  298.15 -208000+40*T;            6000. N 291 !
PAR G(LIQUID,B,MO;1)  298.15 -15000;                  6000. N 291 !
PAR G(LIQUID,B,MO;2)  298.15 +20000;                  6000. N 291 !
PAR G(LIQUID,B,N;0)   298.15 +30000-4*T;              6000. N 369 !
PAR G(LIQUID,B,NI;0)  298.15 -120000+38*T;            6000. N 291 !
PAR G(LIQUID,B,NI;1)  298.15 +15500;                  6000. N 291 !
PAR G(LIQUID,B,NI;2)  298.15 +15000;                  6000. N 291 !
PAR G(LIQUID,B,V;0)   298.15 -210000+40*T;            6000. N 291 !
PAR G(LIQUID,B,V;1)   298.15 -20000;                  6000. N 291 !
PAR G(LIQUID,B,V;2)   298.15 +40000;                  6000. N 291 !
PAR G(LIQUID,B,SI;0)  298.15 +17631.92-1.76321*T;     6000. N 374 !
PAR G(LIQUID,B,SI;1)  298.15 -3526.99+.3527*T;        6000. N 374 !
PAR G(LIQUID,B,TI;0)  298.15 -265414.4+15.543418*T;   6000. N 375 !
PAR G(LIQUID,B,TI;1)  298.15 -134303.03+17.709482*T;  6000. N 375 !
PAR G(LIQUID,B,TI;2)  298.15 +61691.479;              6000. N 375 !
PAR G(LIQUID,B,TI;3)  298.15 +52656.13;               6000. N 375 !
PAR G(LIQUID,C,CO;0)  298.15 -107940.6+24.956*T;      6000. N  30 !
PAR G(LIQUID,C,CO;1)  298.15 -9805.5;                 6000. N  30 !
PAR G(LIQUID,C,CR;0)  298.15 -90526-25.9116*T;        6000. N  97 !
PAR G(LIQUID,C,CR;1)  298.15 +80000;                  6000. N  97 !
PAR G(LIQUID,C,CR;2)  298.15 +80000;                  6000. N  97 !
PAR G(LIQUID,C,CU;0)  298.15 +75000;                  6000. N 212 !
PAR G(LIQUID,C,FE;0)  298.15 -124320+28.5*T;          6000. N 186 !
PAR G(LIQUID,C,FE;1)  298.15 +19300;                  6000. N 186 !
PAR G(LIQUID,C,FE;2)  298.15 +49260-19*T;             6000. N 186 !
PAR G(LIQUID,C,MN;0)  298.15 -168240+35.635*T;        6000. N 263 !
PAR G(LIQUID,C,MN;1)  298.15 -91760+50*T;             6000. N 263 !
PAR G(LIQUID,C,MO;0)  298.15 -217800+38.41*T;         6000. N 100 !
PAR G(LIQUID,C,MO;1)  298.15 +30000;                  6000. N 100 !
PAR G(LIQUID,C,MO;2)  298.15 +47000;                  6000. N 100 !
$PAR G(LIQUID,C,NB;0)  298.15 -317748+38.851*T;        6000. N 327 !
$PAR G(LIQUID,C,NB;1)  298.15 +13125;                  6000. N 327 !
$PAR G(LIQUID,C,NB;2)  298.15 +55982;                  6000. N 327 !
PAR G(LIQUID,C,NB;0)  298.15 -292831+31.2967*T;       6000. N 459 !
PAR G(LIQUID,C,NB;1)  298.15 +6091;                   6000. N 459 !
PAR G(LIQUID,C,NB;2)  298.15 +41021;                  6000. N 459 !
PAR G(LIQUID,C,NI;0)  298.15 -111479+35.2685*T;       6000. N 314 !
PAR G(LIQUID,C,SI;0)  298.15 +25644.97-6.38115*T;     6000. N 356 !
PAR G(LIQUID,C,TI;0)  298.15 -125409-44.4*T;          6000. N 384 !
PAR G(LIQUID,C,V;0)   298.15 -284196+38.952*T;        6000. N 252 !
PAR G(LIQUID,C,V;1)   298.15 +96335-17.775*T;         6000. N 252 !
PAR G(LIQUID,C,V;2)   298.15 +102050;                 6000. N 252 !
$PAR G(LIQUID,C,W;0)   298.15 -107920+6.38*T;         6000. N 194 !
$PAR G(LIQUID,C,W;1)   298.15 +173900-34.25*T;        6000. N 194 !
$PAR G(LIQUID,C,W;2)   298.15 +83700;                 6000. N 194 !
PAR G(LIQUID,C,W;0)   298.15 -84261;                  6000. N 448 !
PAR G(LIQUID,C,W;1)   298.15 +45205;                  6000. N 448 !
PAR G(LIQUID,C,W;2)   298.15 +43217;                  6000. N 448 !
PAR G(LIQUID,CO,CR;0) 298.15 -3034-5.624*T;           6000. N 344 !
PAR G(LIQUID,CO,CR;1) 298.15 +909;                    6000. N 344 !
PAR G(LIQUID,CO,FE;0) 298.15 -9312;                   6000. N  18 !
PAR G(LIQUID,CO,FE;1) 298.15 -1752;                   6000. N  18 !
PAR G(LIQUID,CO,MN;0) 298.15 -29476;                  6000. N 259 !
PAR G(LIQUID,CO,MO;0) 298.15 -87020.2+43.036*T;       6000. N 454 !
PAR G(LIQUID,CO,MO;1) 298.15 +6523.4+2.012*T;         6000. N 454 !
PAR G(LIQUID,CO,N;0)  298.15 -7700;                   6000. N 396 !
PAR G(LIQUID,CO,NB;0) 298.15 -85028+14.284*T;         6000. N 408 !
PAR G(LIQUID,CO,NB;1) 298.15 -9936;                   6000. N 408 !  
PAR G(LIQUID,CO,NI;0) 298.15 +1331;                   6000. N  20 !
$PAR G(LIQUID,CO,TI;0) 298.15 -130000+30*T;            6000. N 411 !
$PAR G(LIQUID,CO,TI;1) 298.15 -22500+10*T;             6000. N 411 !
$PAR G(LIQUID,CO,TI;2) 298.15 +12500;                  6000. N 411 !
PAR G(LIQUID,CO,TI;0) 298.15 -135810+31.497*T;        6000. N 413 !
PAR G(LIQUID,CO,TI;1) 298.15 -5513.8;                 6000. N 413 !
PAR G(LIQUID,CO,TI;2) 298.15 +13624;                  6000. N 413 !
PAR G(LIQUID,CO,W;0)  298.15 -42258+13.616*T;         6000. N  37 !
PAR G(LIQUID,CR,CU;0) 298.15 +35495.913-2.958*T;      6000. N 350 !
PAR G(LIQUID,CR,CU;1) 298.15 +1001.17645;             6000. N 350 !
PAR G(LIQUID,CR,CU;2) 298.15 +5704.64789;             6000. N 350 !
PAR G(LIQUID,CR,FE;0) 298.15 -17737+7.996546*T;       6000. N 322 !
PAR G(LIQUID,CR,FE;1) 298.15 -1331;                   6000. N 322 !
PAR G(LIQUID,CR,MG;0) 298.15 +94500;                  6000. N 432 !
PAR G(LIQUID,CR,MG;1) 298.15 +12500;                  6000. N 432 !
PAR G(LIQUID,CR,MN;0) 298.15 -15009+13.6587*T;        6000. N 323 !
PAR G(LIQUID,CR,MN;1) 298.15 +504+.9479*T;            6000. N 323 !
PAR G(LIQUID,CR,MO;0) 298.15 +15810-6.714*T;          6000. N 119 !
PAR G(LIQUID,CR,MO;1) 298.15 -6220;                   6000. N 119 !
PAR G(LIQUID,CR,N;0)  298.15 -161800-16.11*T;         6000. N 124 !
PAR G(LIQUID,CR,N;1)  298.15 +65508;                  6000. N 124 !
PAR G(LIQUID,CR,NB;0) 298.15 -10304.91+0.60618*T;     6000. N 427 !
PAR G(LIQUID,CR,NB;1) 298.15 -8513.45+0.5008*T;       6000. N 427 !
PAR G(LIQUID,CR,NI;0) 298.15 +318-7.3318*T;           6000. N 314 !
PAR G(LIQUID,CR,NI;1) 298.15 +16941-6.3696*T;         6000. N 314 !
PAR G(LIQUID,CR,P;0)  298.15 -200000;                 6000. N 406 !
PAR G(LIQUID,CR,P;1)  298.15 +79000;                  6000. N 406 !
PAR G(LIQUID,CR,P;2)  298.15 -65000;                  6000. N 406 !
PAR G(LIQUID,CR,SI;0) 298.15 -132288+20.80819*T;      6000. N 325 !
PAR G(LIQUID,CR,SI;1) 298.15 -59585+19.20022*T;       6000. N 325 !
PAR G(LIQUID,CR,SI;2) 298.15 -712+9*T;                6000. N 325 !
PAR G(LIQUID,CR,TI;0) 298.15 +5250;                   6000. N 351 !
PAR G(LIQUID,CR,TI;1) 298.15 +1500;                   6000. N 351 !
PAR G(LIQUID,CR,V;0)  298.15 -9874-2.6964*T;          6000. N 315 !
PAR G(LIQUID,CR,V;1)  298.15 -1720-2.5237*T;          6000. N 315 !
PAR G(LIQUID,CR,W;0)  298.15 -16800+10*T;             6000. N 196 !
PAR G(LIQUID,CR,W;1)  298.15 +9000;                   6000. N 196 !
PAR G(LIQUID,CR,ZN;0) 298.15 +19000;                  6000. N 450 !
PAR G(LIQUID,CR,ZN;1) 298.15 -1000;                   6000. N 450 !
PAR G(LIQUID,CU,FE;0) 298.15 +36087.987-2.3296885*T;  6000. N 349 !
PAR G(LIQUID,CU,FE;1) 298.15 +324.52964-.032700618*T; 6000. N 349 !
PAR G(LIQUID,CU,FE;2) 298.15 +10355.386-3.6029763*T;  6000. N 349 !
PAR G(LIQUID,CU,MG;0) 298.15 -36962.71+4.74394*T;     6000. N 433 !
PAR G(LIQUID,CU,MG;1) 298.15 -8182.19;                6000. N 433 !
PAR G(LIQUID,CU,N;0)  298.15 +33115;                  6000. N 334 !
PAR G(LIQUID,CU,NB;0) 298.15 +204361.19-89.931411*T;  6000. N  88 !
PAR G(LIQUID,CU,NB;1) 298.15 -105148.17+57.81653*T;   6000. N  88 !
PAR G(LIQUID,CU,NI;0) 298.15 +12048.61+1.29093*T;     6000. N 348 !
PAR G(LIQUID,CU,NI;1) 298.15 -1861.61+0.94201*T;      6000. N 348 !
PAR G(LIQUID,CU,P;0)  298.15 -193000+60*T;            6000. N 286 !
PAR G(LIQUID,CU,P;2)  298.15 +8000;                   6000. N 286 !
PAR G(LIQUID,CU,SI;0) 298.15 -39688.86+14.27467*T;    6000. N 359 !
PAR G(LIQUID,CU,SI;1) 298.15 -49937.13+29.78960*T;    6000. N 359 !
PAR G(LIQUID,CU,SI;2) 298.15 -31810.16+18.00804*T;    6000. N 359 !
PAR G(LIQUID,CU,TI;0) 298.15 -19637+3.5542*T;         6000. N 325 !
PAR G(LIQUID,CU,TI;1) 298.15 +3757-5.6672*T;          6000. N 325 !
PAR G(LIQUID,CU,TI;2) 298.15 +5121+2.3365*T;          6000. N 325 !
PAR G(LIQUID,CU,V;0)  298.15 +118298.01-38.49052*T;   6000. N  88 !
PAR G(LIQUID,CU,V;1)  298.15 -1137.38;                6000. N  88 !
PAR G(LIQUID,CU,ZN;0) 298.15 -40695.54+12.65269*T;    6000. N 451 !
PAR G(LIQUID,CU,ZN;1) 298.15 +4402.72-6.55425*T;      6000. N 451 !
PAR G(LIQUID,CU,ZN;2) 298.15 +7818.1-3.25416*T;       6000. N 451 !
PAR G(LIQUID,FE,MG;0) 298.15 +61343+1.5*T;            6000. N 437 !
PAR G(LIQUID,FE,MG;1) 298.15 -2700;                   6000. N 437 !
PAR G(LIQUID,FE,MN;0) 298.15 -3950+.489*T;            6000. N 257 !
PAR G(LIQUID,FE,MN;1) 298.15 +1145;                   6000. N 257 !
PAR G(LIQUID,FE,MO;0) 298.15 -6973-.37*T;             6000. N  10 !
PAR G(LIQUID,FE,MO;1) 298.15 -9424+4.502*T;           6000. N  10 !
PAR G(LIQUID,FE,N;0)  298.15 -19930-12.01*T;          6000. N 124 !
PAR G(LIQUID,FE,NB;0) 298.15 -58795+10.0022*T;        6000. N 459 !
PAR G(LIQUID,FE,NB;1) 298.15 +12696;                  6000. N 459 !
PAR G(LIQUID,FE,NI;0) 298.15 -16911+5.1622*T;         6000. N 322 !
PAR G(LIQUID,FE,NI;1) 298.15 +10180-4.146656*T;       6000. N 322 !
PAR G(LIQUID,FE,P;0)  298.15 -216603+47.028*T;        6000. N 364 !
PAR G(LIQUID,FE,P;1)  298.15 -12490-6.749*T;          6000. N 364 !
PAR G(LIQUID,FE,P;2)  298.15 +43546;                  6000. N 364 !
PAR G(LIQUID,FE,SI;0) 298.15 -164435+41.977*T;        6000. N  95 !
PAR G(LIQUID,FE,SI;1) 298.15 -21.523*T;               6000. N  95 !
PAR G(LIQUID,FE,SI;2) 298.15 +5220+5.726*T;           6000. N 445 !
PAR G(LIQUID,FE,SI;3) 298.15 -28955+26.275*T;         6000. N 445 !
PAR G(LIQUID,FE,TI;0) 298.15 -71347+8.25*T;           6000. N 380 !
PAR G(LIQUID,FE,TI;1) 298.15 +7434-4.5*T;             6000. N 380 !
PAR G(LIQUID,FE,TI;2) 298.15 +12155+0.25*T;           6000. N 380 !
$PARAMETER G(LIQUID,FE,TI;0) 298.15 -76247.+17.845*T; 6000. N 412 !
$PARAMETER G(LIQUID,FE,TI;1) 298.15   +7990.-6.059*T; 6000. N 412 !
$PARAMETER G(LIQUID,FE,TI;2) 298.15   +4345.-2.844*T; 6000. N 412 !
PAR G(LIQUID,FE,V;0)  298.15 -34679+1.895*T;          6000. N 265 !
PAR G(LIQUID,FE,V;1)  298.15 +10209;                  6000. N 265 !
PAR G(LIQUID,FE,W;0)  298.15 -3607+5.65*T;            6000. N 190 !
PAR G(LIQUID,FE,W;1)  298.15 -5450;                   6000. N 190 !

PAR G(LIQUID,MG,MN;0) 298.15 +19125+12.5*T;           6000. N 438 !
PAR G(LIQUID,MG,NI;0) 298.15 -50910+25.8*T;           6000. N 439 !
PAR G(LIQUID,MG,NI;1) 298.15 -14989.95+13.24788*T;    6000. N 439 !
PAR G(LIQUID,MG,SI;0) 298.15 -83864.26+32.44438*T;    6000. N 440 !
PAR G(LIQUID,MG,SI;1) 298.15 +18027.41-19.61202*T;    6000. N 440 !
PAR G(LIQUID,MG,SI;2) 298.15 +2486.67-.31084*T;       6000. N 440 !
PAR G(LIQUID,MG,SI;3) 298.15 +18541.17-2.31766*T;     6000. N 440 !
PAR G(LIQUID,MG,SI;4) 298.15 -12338.84+1.54236*T;     6000. N 440 !
PAR G(LIQUID,MG,ZN;0) 298.15 
    -77729.24+680.52266*T-95*T*LN(T)+.04*T**2;        6000. N 442 !
PAR G(LIQUID,MG,ZN;1) 298.15 +3674.72+.57139*T;       6000. N 442 !
PAR G(LIQUID,MG,ZN;2) 298.15 -1588.15;                6000. N 442 !
PAR G(LIQUID,MN,N;0)  298.15 -142308+6.0759*T;        6000. N 339 !
PAR G(LIQUID,MN,N;1)  298.15 +32906;                  6000. N 339 !
PAR G(LIQUID,MN,NI;0) 298.15 -69233.16+10.54315*T;    6000. N 178 !
PAR G(LIQUID,MN,NI;1) 298.15 +7258.05;                6000. N 178 !
PAR G(LIQUID,MN,SI;0) 298.15 -139817.4+29.86137*T;    6000. N 283 !
PAR G(LIQUID,MN,SI;1) 298.15 -34917.2+3.20488*T;      6000. N 283 !
PAR G(LIQUID,MN,SI;2) 298.15 +46782.4-18.18969*T;     6000. N 283 !
PAR G(LIQUID,MN,SI;3) 298.15 +16168.2;                6000. N 283 !
PAR G(LIQUID,MN,MO;0) 298.15 -22275+13.6587*T;        6000. N 325 !
PAR G(LIQUID,MN,MO;1) 298.15 +23500-10.7493*T;        6000. N 325 !
PAR G(LIQUID,MN,TI;0) 298.15 -34000+21.5*T;           6000. N 358 !
PAR G(LIQUID,MN,TI;1) 298.15 +1400;                   6000. N 358 !
PAR G(LIQUID,MN,V;0)  298.15 -11399;                  6000. N 269 !
PAR G(LIQUID,MO,N;0)  298.15 -198280+37.49*T;         6000. N 124 !
PAR G(LIQUID,MO,NB;0) 298.15 -37868.7+3.08423*T;      6000. N 236 !
PAR G(LIQUID,MO,NB;1) 298.15 +6731.4-.56598*T;        6000. N 236 !
PAR G(LIQUID,MO,NI;0) 298.15 -46540+19.53*T;          6000. N 121 !
PAR G(LIQUID,MO,NI;1) 298.15 +2915;                   6000. N 121 !
PAR G(LIQUID,MO,SI;0) 298.15 -135276.2+1.772195*T;    6000. N 238 !
PAR G(LIQUID,MO,SI;1) 298.15 -47107.9+33.71028*T;     6000. N 238 !
PAR G(LIQUID,MO,SI;2) 298.15 +75846.6-30.9*T;         6000. N 238 !
PAR G(LIQUID,MO,TI;0) 298.15 -17494.7-3.57111*T;      6000. N 386 !
PAR G(LIQUID,MO,TI;1) 298.15 -463.9+9.0476*T;         6000. N 386 !
PAR G(LIQUID,N,NB;0)  298.15 -292101;                 6000. N 326 !
PAR G(LIQUID,N,NB;1)  298.15 -105406;                 6000. N 326 !
PAR G(LIQUID,N,NI;0)  298.15 +14981;                  6000. N 126 !
PAR G(LIQUID,N,TI;0)  298.15 -376354.15;              6000. N 337 !
PAR G(LIQUID,N,TI;1)  298.15 -98242.29;               6000. N 337 !
$PAR G(LIQUID,N,V;0)   298.15 -264845;                 6000. N 394 !
PAR G(LIQUID,N,V;0)   298.15 -239000;                 6000. N 150 !
PAR G(LIQUID,N,V;1)   298.15 -8380;                   6000. N 150 !
PAR G(LIQUID,N,W;0)   298.15 -120000;                 6000. N 331 !
PAR G(LIQUID,NB,TI;0) 298.15 +3000;                   6000. N 400 !
PAR G(LIQUID,NB,W;0)  298.15 -34043+3.603*T;          6000. N 327 !
PAR G(LIQUID,NI,P;0)  298.15 -381589.0+79.1144*T;     6000. N 388 !
PAR G(LIQUID,NI,P;1)  298.15 +104201.3-90.7228*T;     6000. N 388 !
PAR G(LIQUID,NI,P;2)  298.15 +78364.1;                6000. N 388 !